p cnf 1403 38839
-1 -7 668 0
-668 7 0
-668 1 0
-668 667 0
-12 -18 669 0
-669 18 0
-669 12 0
-669 667 0
-23 -28 670 0
-670 28 0
-670 23 0
-670 667 0
-33 -37 671 0
-671 37 0
-671 33 0
-671 667 0
-667 668 669 670 671 0
-1 -8 673 0
-673 8 0
-673 1 0
-673 672 0
-12 -19 674 0
-674 19 0
-674 12 0
-674 672 0
-23 -29 675 0
-675 29 0
-675 23 0
-675 672 0
-33 -38 676 0
-676 38 0
-676 33 0
-676 672 0
-672 673 674 675 676 0
-1 -9 678 0
-678 9 0
-678 1 0
-678 677 0
-12 -20 679 0
-679 20 0
-679 12 0
-679 677 0
-23 -30 680 0
-680 30 0
-680 23 0
-680 677 0
-33 -39 681 0
-681 39 0
-681 33 0
-681 677 0
-677 678 679 680 681 0
-1 -10 683 0
-683 10 0
-683 1 0
-683 682 0
-12 -21 684 0
-684 21 0
-684 12 0
-684 682 0
-23 -31 685 0
-685 31 0
-685 23 0
-685 682 0
-33 -40 686 0
-686 40 0
-686 33 0
-686 682 0
-682 683 684 685 686 0
-2 -7 688 0
-688 7 0
-688 2 0
-688 687 0
-13 -18 689 0
-689 18 0
-689 13 0
-689 687 0
-23 -28 690 0
-24 -28 690 0
-690 28 0
-690 23 24 0
-690 687 0
-33 -37 691 0
-34 -37 691 0
-691 37 0
-691 33 34 0
-691 687 0
-687 688 689 690 691 0
-2 -8 693 0
-693 8 0
-693 2 0
-693 692 0
-13 -19 694 0
-694 19 0
-694 13 0
-694 692 0
-23 -29 695 0
-24 -29 695 0
-695 29 0
-695 23 24 0
-695 692 0
-33 -38 696 0
-34 -38 696 0
-696 38 0
-696 33 34 0
-696 692 0
-692 693 694 695 696 0
-2 -9 698 0
-698 9 0
-698 2 0
-698 697 0
-13 -20 699 0
-699 20 0
-699 13 0
-699 697 0
-23 -30 700 0
-24 -30 700 0
-700 30 0
-700 23 24 0
-700 697 0
-33 -39 701 0
-34 -39 701 0
-701 39 0
-701 33 34 0
-701 697 0
-697 698 699 700 701 0
-2 -10 703 0
-703 10 0
-703 2 0
-703 702 0
-13 -21 704 0
-704 21 0
-704 13 0
-704 702 0
-23 -31 705 0
-24 -31 705 0
-705 31 0
-705 23 24 0
-705 702 0
-33 -40 706 0
-34 -40 706 0
-706 40 0
-706 33 34 0
-706 702 0
-702 703 704 705 706 0
-3 -7 708 0
-708 7 0
-708 3 0
-708 707 0
-14 -18 709 0
-709 18 0
-709 14 0
-709 707 0
-24 -28 710 0
-25 -28 710 0
-710 28 0
-710 24 25 0
-710 707 0
-33 -37 711 0
-34 -37 711 0
-35 -37 711 0
-711 37 0
-711 33 34 35 0
-711 707 0
-707 708 709 710 711 0
-3 -8 713 0
-713 8 0
-713 3 0
-713 712 0
-14 -19 714 0
-714 19 0
-714 14 0
-714 712 0
-24 -29 715 0
-25 -29 715 0
-715 29 0
-715 24 25 0
-715 712 0
-33 -38 716 0
-34 -38 716 0
-35 -38 716 0
-716 38 0
-716 33 34 35 0
-716 712 0
-712 713 714 715 716 0
-3 -9 718 0
-718 9 0
-718 3 0
-718 717 0
-14 -20 719 0
-719 20 0
-719 14 0
-719 717 0
-24 -30 720 0
-25 -30 720 0
-720 30 0
-720 24 25 0
-720 717 0
-33 -39 721 0
-34 -39 721 0
-35 -39 721 0
-721 39 0
-721 33 34 35 0
-721 717 0
-717 718 719 720 721 0
-3 -10 723 0
-723 10 0
-723 3 0
-723 722 0
-14 -21 724 0
-724 21 0
-724 14 0
-724 722 0
-24 -31 725 0
-25 -31 725 0
-725 31 0
-725 24 25 0
-725 722 0
-33 -40 726 0
-34 -40 726 0
-35 -40 726 0
-726 40 0
-726 33 34 35 0
-726 722 0
-722 723 724 725 726 0
-4 -7 728 0
-728 7 0
-728 4 0
-728 727 0
-15 -18 729 0
-729 18 0
-729 15 0
-729 727 0
-25 -28 730 0
-26 -28 730 0
-730 28 0
-730 25 26 0
-730 727 0
-34 -37 731 0
-35 -37 731 0
-36 -37 731 0
-731 37 0
-731 34 35 36 0
-731 727 0
-727 728 729 730 731 0
-4 -8 733 0
-733 8 0
-733 4 0
-733 732 0
-15 -19 734 0
-734 19 0
-734 15 0
-734 732 0
-25 -29 735 0
-26 -29 735 0
-735 29 0
-735 25 26 0
-735 732 0
-34 -38 736 0
-35 -38 736 0
-36 -38 736 0
-736 38 0
-736 34 35 36 0
-736 732 0
-732 733 734 735 736 0
-4 -9 738 0
-738 9 0
-738 4 0
-738 737 0
-15 -20 739 0
-739 20 0
-739 15 0
-739 737 0
-25 -30 740 0
-26 -30 740 0
-740 30 0
-740 25 26 0
-740 737 0
-34 -39 741 0
-35 -39 741 0
-36 -39 741 0
-741 39 0
-741 34 35 36 0
-741 737 0
-737 738 739 740 741 0
-4 -10 743 0
-743 10 0
-743 4 0
-743 742 0
-15 -21 744 0
-744 21 0
-744 15 0
-744 742 0
-25 -31 745 0
-26 -31 745 0
-745 31 0
-745 25 26 0
-745 742 0
-34 -40 746 0
-35 -40 746 0
-36 -40 746 0
-746 40 0
-746 34 35 36 0
-746 742 0
-742 743 744 745 746 0
-5 -7 748 0
-748 7 0
-748 5 0
-748 747 0
-16 -18 749 0
-749 18 0
-749 16 0
-749 747 0
-26 -28 750 0
-27 -28 750 0
-750 28 0
-750 26 27 0
-750 747 0
-35 -37 751 0
-36 -37 751 0
-751 37 0
-751 35 36 0
-751 747 0
-747 748 749 750 751 0
-5 -8 753 0
-753 8 0
-753 5 0
-753 752 0
-16 -19 754 0
-754 19 0
-754 16 0
-754 752 0
-26 -29 755 0
-27 -29 755 0
-755 29 0
-755 26 27 0
-755 752 0
-35 -38 756 0
-36 -38 756 0
-756 38 0
-756 35 36 0
-756 752 0
-752 753 754 755 756 0
-5 -9 758 0
-758 9 0
-758 5 0
-758 757 0
-16 -20 759 0
-759 20 0
-759 16 0
-759 757 0
-26 -30 760 0
-27 -30 760 0
-760 30 0
-760 26 27 0
-760 757 0
-35 -39 761 0
-36 -39 761 0
-761 39 0
-761 35 36 0
-761 757 0
-757 758 759 760 761 0
-5 -10 763 0
-763 10 0
-763 5 0
-763 762 0
-16 -21 764 0
-764 21 0
-764 16 0
-764 762 0
-26 -31 765 0
-27 -31 765 0
-765 31 0
-765 26 27 0
-765 762 0
-35 -40 766 0
-36 -40 766 0
-766 40 0
-766 35 36 0
-766 762 0
-762 763 764 765 766 0
-6 -7 768 0
-768 7 0
-768 6 0
-768 767 0
-17 -18 769 0
-769 18 0
-769 17 0
-769 767 0
-27 -28 770 0
-770 28 0
-770 27 0
-770 767 0
-36 -37 771 0
-771 37 0
-771 36 0
-771 767 0
-767 768 769 770 771 0
-6 -8 773 0
-773 8 0
-773 6 0
-773 772 0
-17 -19 774 0
-774 19 0
-774 17 0
-774 772 0
-27 -29 775 0
-775 29 0
-775 27 0
-775 772 0
-36 -38 776 0
-776 38 0
-776 36 0
-776 772 0
-772 773 774 775 776 0
-6 -9 778 0
-778 9 0
-778 6 0
-778 777 0
-17 -20 779 0
-779 20 0
-779 17 0
-779 777 0
-27 -30 780 0
-780 30 0
-780 27 0
-780 777 0
-36 -39 781 0
-781 39 0
-781 36 0
-781 777 0
-777 778 779 780 781 0
-6 -10 783 0
-783 10 0
-783 6 0
-783 782 0
-17 -21 784 0
-784 21 0
-784 17 0
-784 782 0
-27 -31 785 0
-785 31 0
-785 27 0
-785 782 0
-36 -40 786 0
-786 40 0
-786 36 0
-786 782 0
-782 783 784 785 786 0
-42 -48 788 0
-788 48 0
-788 42 0
-788 787 0
-53 -59 789 0
-789 59 0
-789 53 0
-789 787 0
-64 -69 790 0
-790 69 0
-790 64 0
-790 787 0
-74 -78 791 0
-791 78 0
-791 74 0
-791 787 0
-787 788 789 790 791 0
-42 -49 793 0
-793 49 0
-793 42 0
-793 792 0
-53 -60 794 0
-794 60 0
-794 53 0
-794 792 0
-64 -70 795 0
-795 70 0
-795 64 0
-795 792 0
-74 -79 796 0
-796 79 0
-796 74 0
-796 792 0
-792 793 794 795 796 0
-42 -50 798 0
-798 50 0
-798 42 0
-798 797 0
-53 -61 799 0
-799 61 0
-799 53 0
-799 797 0
-64 -71 800 0
-800 71 0
-800 64 0
-800 797 0
-74 -80 801 0
-801 80 0
-801 74 0
-801 797 0
-797 798 799 800 801 0
-42 -51 803 0
-803 51 0
-803 42 0
-803 802 0
-53 -62 804 0
-804 62 0
-804 53 0
-804 802 0
-64 -72 805 0
-805 72 0
-805 64 0
-805 802 0
-74 -81 806 0
-806 81 0
-806 74 0
-806 802 0
-802 803 804 805 806 0
-43 -48 808 0
-808 48 0
-808 43 0
-808 807 0
-54 -59 809 0
-809 59 0
-809 54 0
-809 807 0
-64 -69 810 0
-65 -69 810 0
-810 69 0
-810 64 65 0
-810 807 0
-74 -78 811 0
-75 -78 811 0
-811 78 0
-811 74 75 0
-811 807 0
-807 808 809 810 811 0
-43 -49 813 0
-813 49 0
-813 43 0
-813 812 0
-54 -60 814 0
-814 60 0
-814 54 0
-814 812 0
-64 -70 815 0
-65 -70 815 0
-815 70 0
-815 64 65 0
-815 812 0
-74 -79 816 0
-75 -79 816 0
-816 79 0
-816 74 75 0
-816 812 0
-812 813 814 815 816 0
-43 -50 818 0
-818 50 0
-818 43 0
-818 817 0
-54 -61 819 0
-819 61 0
-819 54 0
-819 817 0
-64 -71 820 0
-65 -71 820 0
-820 71 0
-820 64 65 0
-820 817 0
-74 -80 821 0
-75 -80 821 0
-821 80 0
-821 74 75 0
-821 817 0
-817 818 819 820 821 0
-43 -51 823 0
-823 51 0
-823 43 0
-823 822 0
-54 -62 824 0
-824 62 0
-824 54 0
-824 822 0
-64 -72 825 0
-65 -72 825 0
-825 72 0
-825 64 65 0
-825 822 0
-74 -81 826 0
-75 -81 826 0
-826 81 0
-826 74 75 0
-826 822 0
-822 823 824 825 826 0
-44 -48 828 0
-828 48 0
-828 44 0
-828 827 0
-55 -59 829 0
-829 59 0
-829 55 0
-829 827 0
-65 -69 830 0
-66 -69 830 0
-830 69 0
-830 65 66 0
-830 827 0
-74 -78 831 0
-75 -78 831 0
-76 -78 831 0
-831 78 0
-831 74 75 76 0
-831 827 0
-827 828 829 830 831 0
-44 -49 833 0
-833 49 0
-833 44 0
-833 832 0
-55 -60 834 0
-834 60 0
-834 55 0
-834 832 0
-65 -70 835 0
-66 -70 835 0
-835 70 0
-835 65 66 0
-835 832 0
-74 -79 836 0
-75 -79 836 0
-76 -79 836 0
-836 79 0
-836 74 75 76 0
-836 832 0
-832 833 834 835 836 0
-44 -50 838 0
-838 50 0
-838 44 0
-838 837 0
-55 -61 839 0
-839 61 0
-839 55 0
-839 837 0
-65 -71 840 0
-66 -71 840 0
-840 71 0
-840 65 66 0
-840 837 0
-74 -80 841 0
-75 -80 841 0
-76 -80 841 0
-841 80 0
-841 74 75 76 0
-841 837 0
-837 838 839 840 841 0
-44 -51 843 0
-843 51 0
-843 44 0
-843 842 0
-55 -62 844 0
-844 62 0
-844 55 0
-844 842 0
-65 -72 845 0
-66 -72 845 0
-845 72 0
-845 65 66 0
-845 842 0
-74 -81 846 0
-75 -81 846 0
-76 -81 846 0
-846 81 0
-846 74 75 76 0
-846 842 0
-842 843 844 845 846 0
-45 -48 848 0
-848 48 0
-848 45 0
-848 847 0
-56 -59 849 0
-849 59 0
-849 56 0
-849 847 0
-66 -69 850 0
-67 -69 850 0
-850 69 0
-850 66 67 0
-850 847 0
-75 -78 851 0
-76 -78 851 0
-77 -78 851 0
-851 78 0
-851 75 76 77 0
-851 847 0
-847 848 849 850 851 0
-45 -49 853 0
-853 49 0
-853 45 0
-853 852 0
-56 -60 854 0
-854 60 0
-854 56 0
-854 852 0
-66 -70 855 0
-67 -70 855 0
-855 70 0
-855 66 67 0
-855 852 0
-75 -79 856 0
-76 -79 856 0
-77 -79 856 0
-856 79 0
-856 75 76 77 0
-856 852 0
-852 853 854 855 856 0
-45 -50 858 0
-858 50 0
-858 45 0
-858 857 0
-56 -61 859 0
-859 61 0
-859 56 0
-859 857 0
-66 -71 860 0
-67 -71 860 0
-860 71 0
-860 66 67 0
-860 857 0
-75 -80 861 0
-76 -80 861 0
-77 -80 861 0
-861 80 0
-861 75 76 77 0
-861 857 0
-857 858 859 860 861 0
-45 -51 863 0
-863 51 0
-863 45 0
-863 862 0
-56 -62 864 0
-864 62 0
-864 56 0
-864 862 0
-66 -72 865 0
-67 -72 865 0
-865 72 0
-865 66 67 0
-865 862 0
-75 -81 866 0
-76 -81 866 0
-77 -81 866 0
-866 81 0
-866 75 76 77 0
-866 862 0
-862 863 864 865 866 0
-46 -48 868 0
-868 48 0
-868 46 0
-868 867 0
-57 -59 869 0
-869 59 0
-869 57 0
-869 867 0
-67 -69 870 0
-68 -69 870 0
-870 69 0
-870 67 68 0
-870 867 0
-76 -78 871 0
-77 -78 871 0
-871 78 0
-871 76 77 0
-871 867 0
-867 868 869 870 871 0
-46 -49 873 0
-873 49 0
-873 46 0
-873 872 0
-57 -60 874 0
-874 60 0
-874 57 0
-874 872 0
-67 -70 875 0
-68 -70 875 0
-875 70 0
-875 67 68 0
-875 872 0
-76 -79 876 0
-77 -79 876 0
-876 79 0
-876 76 77 0
-876 872 0
-872 873 874 875 876 0
-46 -50 878 0
-878 50 0
-878 46 0
-878 877 0
-57 -61 879 0
-879 61 0
-879 57 0
-879 877 0
-67 -71 880 0
-68 -71 880 0
-880 71 0
-880 67 68 0
-880 877 0
-76 -80 881 0
-77 -80 881 0
-881 80 0
-881 76 77 0
-881 877 0
-877 878 879 880 881 0
-46 -51 883 0
-883 51 0
-883 46 0
-883 882 0
-57 -62 884 0
-884 62 0
-884 57 0
-884 882 0
-67 -72 885 0
-68 -72 885 0
-885 72 0
-885 67 68 0
-885 882 0
-76 -81 886 0
-77 -81 886 0
-886 81 0
-886 76 77 0
-886 882 0
-882 883 884 885 886 0
-47 -48 888 0
-888 48 0
-888 47 0
-888 887 0
-58 -59 889 0
-889 59 0
-889 58 0
-889 887 0
-68 -69 890 0
-890 69 0
-890 68 0
-890 887 0
-77 -78 891 0
-891 78 0
-891 77 0
-891 887 0
-887 888 889 890 891 0
-47 -49 893 0
-893 49 0
-893 47 0
-893 892 0
-58 -60 894 0
-894 60 0
-894 58 0
-894 892 0
-68 -70 895 0
-895 70 0
-895 68 0
-895 892 0
-77 -79 896 0
-896 79 0
-896 77 0
-896 892 0
-892 893 894 895 896 0
-47 -50 898 0
-898 50 0
-898 47 0
-898 897 0
-58 -61 899 0
-899 61 0
-899 58 0
-899 897 0
-68 -71 900 0
-900 71 0
-900 68 0
-900 897 0
-77 -80 901 0
-901 80 0
-901 77 0
-901 897 0
-897 898 899 900 901 0
-47 -51 903 0
-903 51 0
-903 47 0
-903 902 0
-58 -62 904 0
-904 62 0
-904 58 0
-904 902 0
-68 -72 905 0
-905 72 0
-905 68 0
-905 902 0
-77 -81 906 0
-906 81 0
-906 77 0
-906 902 0
-902 903 904 905 906 0
-83 -89 908 0
-908 89 0
-908 83 0
-908 907 0
-94 -100 909 0
-909 100 0
-909 94 0
-909 907 0
-105 -110 910 0
-910 110 0
-910 105 0
-910 907 0
-115 -119 911 0
-911 119 0
-911 115 0
-911 907 0
-907 908 909 910 911 0
-83 -90 913 0
-913 90 0
-913 83 0
-913 912 0
-94 -101 914 0
-914 101 0
-914 94 0
-914 912 0
-105 -111 915 0
-915 111 0
-915 105 0
-915 912 0
-115 -120 916 0
-916 120 0
-916 115 0
-916 912 0
-912 913 914 915 916 0
-83 -91 918 0
-918 91 0
-918 83 0
-918 917 0
-94 -102 919 0
-919 102 0
-919 94 0
-919 917 0
-105 -112 920 0
-920 112 0
-920 105 0
-920 917 0
-115 -121 921 0
-921 121 0
-921 115 0
-921 917 0
-917 918 919 920 921 0
-83 -92 923 0
-923 92 0
-923 83 0
-923 922 0
-94 -103 924 0
-924 103 0
-924 94 0
-924 922 0
-105 -113 925 0
-925 113 0
-925 105 0
-925 922 0
-115 -122 926 0
-926 122 0
-926 115 0
-926 922 0
-922 923 924 925 926 0
-84 -89 928 0
-928 89 0
-928 84 0
-928 927 0
-95 -100 929 0
-929 100 0
-929 95 0
-929 927 0
-105 -110 930 0
-106 -110 930 0
-930 110 0
-930 105 106 0
-930 927 0
-115 -119 931 0
-116 -119 931 0
-931 119 0
-931 115 116 0
-931 927 0
-927 928 929 930 931 0
-84 -90 933 0
-933 90 0
-933 84 0
-933 932 0
-95 -101 934 0
-934 101 0
-934 95 0
-934 932 0
-105 -111 935 0
-106 -111 935 0
-935 111 0
-935 105 106 0
-935 932 0
-115 -120 936 0
-116 -120 936 0
-936 120 0
-936 115 116 0
-936 932 0
-932 933 934 935 936 0
-84 -91 938 0
-938 91 0
-938 84 0
-938 937 0
-95 -102 939 0
-939 102 0
-939 95 0
-939 937 0
-105 -112 940 0
-106 -112 940 0
-940 112 0
-940 105 106 0
-940 937 0
-115 -121 941 0
-116 -121 941 0
-941 121 0
-941 115 116 0
-941 937 0
-937 938 939 940 941 0
-84 -92 943 0
-943 92 0
-943 84 0
-943 942 0
-95 -103 944 0
-944 103 0
-944 95 0
-944 942 0
-105 -113 945 0
-106 -113 945 0
-945 113 0
-945 105 106 0
-945 942 0
-115 -122 946 0
-116 -122 946 0
-946 122 0
-946 115 116 0
-946 942 0
-942 943 944 945 946 0
-85 -89 948 0
-948 89 0
-948 85 0
-948 947 0
-96 -100 949 0
-949 100 0
-949 96 0
-949 947 0
-106 -110 950 0
-107 -110 950 0
-950 110 0
-950 106 107 0
-950 947 0
-115 -119 951 0
-116 -119 951 0
-117 -119 951 0
-951 119 0
-951 115 116 117 0
-951 947 0
-947 948 949 950 951 0
-85 -90 953 0
-953 90 0
-953 85 0
-953 952 0
-96 -101 954 0
-954 101 0
-954 96 0
-954 952 0
-106 -111 955 0
-107 -111 955 0
-955 111 0
-955 106 107 0
-955 952 0
-115 -120 956 0
-116 -120 956 0
-117 -120 956 0
-956 120 0
-956 115 116 117 0
-956 952 0
-952 953 954 955 956 0
-85 -91 958 0
-958 91 0
-958 85 0
-958 957 0
-96 -102 959 0
-959 102 0
-959 96 0
-959 957 0
-106 -112 960 0
-107 -112 960 0
-960 112 0
-960 106 107 0
-960 957 0
-115 -121 961 0
-116 -121 961 0
-117 -121 961 0
-961 121 0
-961 115 116 117 0
-961 957 0
-957 958 959 960 961 0
-85 -92 963 0
-963 92 0
-963 85 0
-963 962 0
-96 -103 964 0
-964 103 0
-964 96 0
-964 962 0
-106 -113 965 0
-107 -113 965 0
-965 113 0
-965 106 107 0
-965 962 0
-115 -122 966 0
-116 -122 966 0
-117 -122 966 0
-966 122 0
-966 115 116 117 0
-966 962 0
-962 963 964 965 966 0
-86 -89 968 0
-968 89 0
-968 86 0
-968 967 0
-97 -100 969 0
-969 100 0
-969 97 0
-969 967 0
-107 -110 970 0
-108 -110 970 0
-970 110 0
-970 107 108 0
-970 967 0
-116 -119 971 0
-117 -119 971 0
-118 -119 971 0
-971 119 0
-971 116 117 118 0
-971 967 0
-967 968 969 970 971 0
-86 -90 973 0
-973 90 0
-973 86 0
-973 972 0
-97 -101 974 0
-974 101 0
-974 97 0
-974 972 0
-107 -111 975 0
-108 -111 975 0
-975 111 0
-975 107 108 0
-975 972 0
-116 -120 976 0
-117 -120 976 0
-118 -120 976 0
-976 120 0
-976 116 117 118 0
-976 972 0
-972 973 974 975 976 0
-86 -91 978 0
-978 91 0
-978 86 0
-978 977 0
-97 -102 979 0
-979 102 0
-979 97 0
-979 977 0
-107 -112 980 0
-108 -112 980 0
-980 112 0
-980 107 108 0
-980 977 0
-116 -121 981 0
-117 -121 981 0
-118 -121 981 0
-981 121 0
-981 116 117 118 0
-981 977 0
-977 978 979 980 981 0
-86 -92 983 0
-983 92 0
-983 86 0
-983 982 0
-97 -103 984 0
-984 103 0
-984 97 0
-984 982 0
-107 -113 985 0
-108 -113 985 0
-985 113 0
-985 107 108 0
-985 982 0
-116 -122 986 0
-117 -122 986 0
-118 -122 986 0
-986 122 0
-986 116 117 118 0
-986 982 0
-982 983 984 985 986 0
-87 -89 988 0
-988 89 0
-988 87 0
-988 987 0
-98 -100 989 0
-989 100 0
-989 98 0
-989 987 0
-108 -110 990 0
-109 -110 990 0
-990 110 0
-990 108 109 0
-990 987 0
-117 -119 991 0
-118 -119 991 0
-991 119 0
-991 117 118 0
-991 987 0
-987 988 989 990 991 0
-87 -90 993 0
-993 90 0
-993 87 0
-993 992 0
-98 -101 994 0
-994 101 0
-994 98 0
-994 992 0
-108 -111 995 0
-109 -111 995 0
-995 111 0
-995 108 109 0
-995 992 0
-117 -120 996 0
-118 -120 996 0
-996 120 0
-996 117 118 0
-996 992 0
-992 993 994 995 996 0
-87 -91 998 0
-998 91 0
-998 87 0
-998 997 0
-98 -102 999 0
-999 102 0
-999 98 0
-999 997 0
-108 -112 1000 0
-109 -112 1000 0
-1000 112 0
-1000 108 109 0
-1000 997 0
-117 -121 1001 0
-118 -121 1001 0
-1001 121 0
-1001 117 118 0
-1001 997 0
-997 998 999 1000 1001 0
-87 -92 1003 0
-1003 92 0
-1003 87 0
-1003 1002 0
-98 -103 1004 0
-1004 103 0
-1004 98 0
-1004 1002 0
-108 -113 1005 0
-109 -113 1005 0
-1005 113 0
-1005 108 109 0
-1005 1002 0
-117 -122 1006 0
-118 -122 1006 0
-1006 122 0
-1006 117 118 0
-1006 1002 0
-1002 1003 1004 1005 1006 0
-88 -89 1008 0
-1008 89 0
-1008 88 0
-1008 1007 0
-99 -100 1009 0
-1009 100 0
-1009 99 0
-1009 1007 0
-109 -110 1010 0
-1010 110 0
-1010 109 0
-1010 1007 0
-118 -119 1011 0
-1011 119 0
-1011 118 0
-1011 1007 0
-1007 1008 1009 1010 1011 0
-88 -90 1013 0
-1013 90 0
-1013 88 0
-1013 1012 0
-99 -101 1014 0
-1014 101 0
-1014 99 0
-1014 1012 0
-109 -111 1015 0
-1015 111 0
-1015 109 0
-1015 1012 0
-118 -120 1016 0
-1016 120 0
-1016 118 0
-1016 1012 0
-1012 1013 1014 1015 1016 0
-88 -91 1018 0
-1018 91 0
-1018 88 0
-1018 1017 0
-99 -102 1019 0
-1019 102 0
-1019 99 0
-1019 1017 0
-109 -112 1020 0
-1020 112 0
-1020 109 0
-1020 1017 0
-118 -121 1021 0
-1021 121 0
-1021 118 0
-1021 1017 0
-1017 1018 1019 1020 1021 0
-88 -92 1023 0
-1023 92 0
-1023 88 0
-1023 1022 0
-99 -103 1024 0
-1024 103 0
-1024 99 0
-1024 1022 0
-109 -113 1025 0
-1025 113 0
-1025 109 0
-1025 1022 0
-118 -122 1026 0
-1026 122 0
-1026 118 0
-1026 1022 0
-1022 1023 1024 1025 1026 0
-124 -130 1028 0
-1028 130 0
-1028 124 0
-1028 1027 0
-135 -141 1029 0
-1029 141 0
-1029 135 0
-1029 1027 0
-146 -151 1030 0
-1030 151 0
-1030 146 0
-1030 1027 0
-156 -160 1031 0
-1031 160 0
-1031 156 0
-1031 1027 0
-1027 1028 1029 1030 1031 0
-124 -131 1033 0
-1033 131 0
-1033 124 0
-1033 1032 0
-135 -142 1034 0
-1034 142 0
-1034 135 0
-1034 1032 0
-146 -152 1035 0
-1035 152 0
-1035 146 0
-1035 1032 0
-156 -161 1036 0
-1036 161 0
-1036 156 0
-1036 1032 0
-1032 1033 1034 1035 1036 0
-124 -132 1038 0
-1038 132 0
-1038 124 0
-1038 1037 0
-135 -143 1039 0
-1039 143 0
-1039 135 0
-1039 1037 0
-146 -153 1040 0
-1040 153 0
-1040 146 0
-1040 1037 0
-156 -162 1041 0
-1041 162 0
-1041 156 0
-1041 1037 0
-1037 1038 1039 1040 1041 0
-124 -133 1043 0
-1043 133 0
-1043 124 0
-1043 1042 0
-135 -144 1044 0
-1044 144 0
-1044 135 0
-1044 1042 0
-146 -154 1045 0
-1045 154 0
-1045 146 0
-1045 1042 0
-156 -163 1046 0
-1046 163 0
-1046 156 0
-1046 1042 0
-1042 1043 1044 1045 1046 0
-125 -130 1048 0
-1048 130 0
-1048 125 0
-1048 1047 0
-136 -141 1049 0
-1049 141 0
-1049 136 0
-1049 1047 0
-146 -151 1050 0
-147 -151 1050 0
-1050 151 0
-1050 146 147 0
-1050 1047 0
-156 -160 1051 0
-157 -160 1051 0
-1051 160 0
-1051 156 157 0
-1051 1047 0
-1047 1048 1049 1050 1051 0
-125 -131 1053 0
-1053 131 0
-1053 125 0
-1053 1052 0
-136 -142 1054 0
-1054 142 0
-1054 136 0
-1054 1052 0
-146 -152 1055 0
-147 -152 1055 0
-1055 152 0
-1055 146 147 0
-1055 1052 0
-156 -161 1056 0
-157 -161 1056 0
-1056 161 0
-1056 156 157 0
-1056 1052 0
-1052 1053 1054 1055 1056 0
-125 -132 1058 0
-1058 132 0
-1058 125 0
-1058 1057 0
-136 -143 1059 0
-1059 143 0
-1059 136 0
-1059 1057 0
-146 -153 1060 0
-147 -153 1060 0
-1060 153 0
-1060 146 147 0
-1060 1057 0
-156 -162 1061 0
-157 -162 1061 0
-1061 162 0
-1061 156 157 0
-1061 1057 0
-1057 1058 1059 1060 1061 0
-125 -133 1063 0
-1063 133 0
-1063 125 0
-1063 1062 0
-136 -144 1064 0
-1064 144 0
-1064 136 0
-1064 1062 0
-146 -154 1065 0
-147 -154 1065 0
-1065 154 0
-1065 146 147 0
-1065 1062 0
-156 -163 1066 0
-157 -163 1066 0
-1066 163 0
-1066 156 157 0
-1066 1062 0
-1062 1063 1064 1065 1066 0
-126 -130 1068 0
-1068 130 0
-1068 126 0
-1068 1067 0
-137 -141 1069 0
-1069 141 0
-1069 137 0
-1069 1067 0
-147 -151 1070 0
-148 -151 1070 0
-1070 151 0
-1070 147 148 0
-1070 1067 0
-156 -160 1071 0
-157 -160 1071 0
-158 -160 1071 0
-1071 160 0
-1071 156 157 158 0
-1071 1067 0
-1067 1068 1069 1070 1071 0
-126 -131 1073 0
-1073 131 0
-1073 126 0
-1073 1072 0
-137 -142 1074 0
-1074 142 0
-1074 137 0
-1074 1072 0
-147 -152 1075 0
-148 -152 1075 0
-1075 152 0
-1075 147 148 0
-1075 1072 0
-156 -161 1076 0
-157 -161 1076 0
-158 -161 1076 0
-1076 161 0
-1076 156 157 158 0
-1076 1072 0
-1072 1073 1074 1075 1076 0
-126 -132 1078 0
-1078 132 0
-1078 126 0
-1078 1077 0
-137 -143 1079 0
-1079 143 0
-1079 137 0
-1079 1077 0
-147 -153 1080 0
-148 -153 1080 0
-1080 153 0
-1080 147 148 0
-1080 1077 0
-156 -162 1081 0
-157 -162 1081 0
-158 -162 1081 0
-1081 162 0
-1081 156 157 158 0
-1081 1077 0
-1077 1078 1079 1080 1081 0
-126 -133 1083 0
-1083 133 0
-1083 126 0
-1083 1082 0
-137 -144 1084 0
-1084 144 0
-1084 137 0
-1084 1082 0
-147 -154 1085 0
-148 -154 1085 0
-1085 154 0
-1085 147 148 0
-1085 1082 0
-156 -163 1086 0
-157 -163 1086 0
-158 -163 1086 0
-1086 163 0
-1086 156 157 158 0
-1086 1082 0
-1082 1083 1084 1085 1086 0
-127 -130 1088 0
-1088 130 0
-1088 127 0
-1088 1087 0
-138 -141 1089 0
-1089 141 0
-1089 138 0
-1089 1087 0
-148 -151 1090 0
-149 -151 1090 0
-1090 151 0
-1090 148 149 0
-1090 1087 0
-157 -160 1091 0
-158 -160 1091 0
-159 -160 1091 0
-1091 160 0
-1091 157 158 159 0
-1091 1087 0
-1087 1088 1089 1090 1091 0
-127 -131 1093 0
-1093 131 0
-1093 127 0
-1093 1092 0
-138 -142 1094 0
-1094 142 0
-1094 138 0
-1094 1092 0
-148 -152 1095 0
-149 -152 1095 0
-1095 152 0
-1095 148 149 0
-1095 1092 0
-157 -161 1096 0
-158 -161 1096 0
-159 -161 1096 0
-1096 161 0
-1096 157 158 159 0
-1096 1092 0
-1092 1093 1094 1095 1096 0
-127 -132 1098 0
-1098 132 0
-1098 127 0
-1098 1097 0
-138 -143 1099 0
-1099 143 0
-1099 138 0
-1099 1097 0
-148 -153 1100 0
-149 -153 1100 0
-1100 153 0
-1100 148 149 0
-1100 1097 0
-157 -162 1101 0
-158 -162 1101 0
-159 -162 1101 0
-1101 162 0
-1101 157 158 159 0
-1101 1097 0
-1097 1098 1099 1100 1101 0
-127 -133 1103 0
-1103 133 0
-1103 127 0
-1103 1102 0
-138 -144 1104 0
-1104 144 0
-1104 138 0
-1104 1102 0
-148 -154 1105 0
-149 -154 1105 0
-1105 154 0
-1105 148 149 0
-1105 1102 0
-157 -163 1106 0
-158 -163 1106 0
-159 -163 1106 0
-1106 163 0
-1106 157 158 159 0
-1106 1102 0
-1102 1103 1104 1105 1106 0
-128 -130 1108 0
-1108 130 0
-1108 128 0
-1108 1107 0
-139 -141 1109 0
-1109 141 0
-1109 139 0
-1109 1107 0
-149 -151 1110 0
-150 -151 1110 0
-1110 151 0
-1110 149 150 0
-1110 1107 0
-158 -160 1111 0
-159 -160 1111 0
-1111 160 0
-1111 158 159 0
-1111 1107 0
-1107 1108 1109 1110 1111 0
-128 -131 1113 0
-1113 131 0
-1113 128 0
-1113 1112 0
-139 -142 1114 0
-1114 142 0
-1114 139 0
-1114 1112 0
-149 -152 1115 0
-150 -152 1115 0
-1115 152 0
-1115 149 150 0
-1115 1112 0
-158 -161 1116 0
-159 -161 1116 0
-1116 161 0
-1116 158 159 0
-1116 1112 0
-1112 1113 1114 1115 1116 0
-128 -132 1118 0
-1118 132 0
-1118 128 0
-1118 1117 0
-139 -143 1119 0
-1119 143 0
-1119 139 0
-1119 1117 0
-149 -153 1120 0
-150 -153 1120 0
-1120 153 0
-1120 149 150 0
-1120 1117 0
-158 -162 1121 0
-159 -162 1121 0
-1121 162 0
-1121 158 159 0
-1121 1117 0
-1117 1118 1119 1120 1121 0
-128 -133 1123 0
-1123 133 0
-1123 128 0
-1123 1122 0
-139 -144 1124 0
-1124 144 0
-1124 139 0
-1124 1122 0
-149 -154 1125 0
-150 -154 1125 0
-1125 154 0
-1125 149 150 0
-1125 1122 0
-158 -163 1126 0
-159 -163 1126 0
-1126 163 0
-1126 158 159 0
-1126 1122 0
-1122 1123 1124 1125 1126 0
-129 -130 1128 0
-1128 130 0
-1128 129 0
-1128 1127 0
-140 -141 1129 0
-1129 141 0
-1129 140 0
-1129 1127 0
-150 -151 1130 0
-1130 151 0
-1130 150 0
-1130 1127 0
-159 -160 1131 0
-1131 160 0
-1131 159 0
-1131 1127 0
-1127 1128 1129 1130 1131 0
-129 -131 1133 0
-1133 131 0
-1133 129 0
-1133 1132 0
-140 -142 1134 0
-1134 142 0
-1134 140 0
-1134 1132 0
-150 -152 1135 0
-1135 152 0
-1135 150 0
-1135 1132 0
-159 -161 1136 0
-1136 161 0
-1136 159 0
-1136 1132 0
-1132 1133 1134 1135 1136 0
-129 -132 1138 0
-1138 132 0
-1138 129 0
-1138 1137 0
-140 -143 1139 0
-1139 143 0
-1139 140 0
-1139 1137 0
-150 -153 1140 0
-1140 153 0
-1140 150 0
-1140 1137 0
-159 -162 1141 0
-1141 162 0
-1141 159 0
-1141 1137 0
-1137 1138 1139 1140 1141 0
-129 -133 1143 0
-1143 133 0
-1143 129 0
-1143 1142 0
-140 -144 1144 0
-1144 144 0
-1144 140 0
-1144 1142 0
-150 -154 1145 0
-1145 154 0
-1145 150 0
-1145 1142 0
-159 -163 1146 0
-1146 163 0
-1146 159 0
-1146 1142 0
-1142 1143 1144 1145 1146 0
-165 -171 1148 0
-1148 171 0
-1148 165 0
-1148 1147 0
-176 -182 1149 0
-1149 182 0
-1149 176 0
-1149 1147 0
-187 -192 1150 0
-1150 192 0
-1150 187 0
-1150 1147 0
-197 -201 1151 0
-1151 201 0
-1151 197 0
-1151 1147 0
-1147 1148 1149 1150 1151 0
-165 -172 1153 0
-1153 172 0
-1153 165 0
-1153 1152 0
-176 -183 1154 0
-1154 183 0
-1154 176 0
-1154 1152 0
-187 -193 1155 0
-1155 193 0
-1155 187 0
-1155 1152 0
-197 -202 1156 0
-1156 202 0
-1156 197 0
-1156 1152 0
-1152 1153 1154 1155 1156 0
-165 -173 1158 0
-1158 173 0
-1158 165 0
-1158 1157 0
-176 -184 1159 0
-1159 184 0
-1159 176 0
-1159 1157 0
-187 -194 1160 0
-1160 194 0
-1160 187 0
-1160 1157 0
-197 -203 1161 0
-1161 203 0
-1161 197 0
-1161 1157 0
-1157 1158 1159 1160 1161 0
-165 -174 1163 0
-1163 174 0
-1163 165 0
-1163 1162 0
-176 -185 1164 0
-1164 185 0
-1164 176 0
-1164 1162 0
-187 -195 1165 0
-1165 195 0
-1165 187 0
-1165 1162 0
-197 -204 1166 0
-1166 204 0
-1166 197 0
-1166 1162 0
-1162 1163 1164 1165 1166 0
-166 -171 1168 0
-1168 171 0
-1168 166 0
-1168 1167 0
-177 -182 1169 0
-1169 182 0
-1169 177 0
-1169 1167 0
-187 -192 1170 0
-188 -192 1170 0
-1170 192 0
-1170 187 188 0
-1170 1167 0
-197 -201 1171 0
-198 -201 1171 0
-1171 201 0
-1171 197 198 0
-1171 1167 0
-1167 1168 1169 1170 1171 0
-166 -172 1173 0
-1173 172 0
-1173 166 0
-1173 1172 0
-177 -183 1174 0
-1174 183 0
-1174 177 0
-1174 1172 0
-187 -193 1175 0
-188 -193 1175 0
-1175 193 0
-1175 187 188 0
-1175 1172 0
-197 -202 1176 0
-198 -202 1176 0
-1176 202 0
-1176 197 198 0
-1176 1172 0
-1172 1173 1174 1175 1176 0
-166 -173 1178 0
-1178 173 0
-1178 166 0
-1178 1177 0
-177 -184 1179 0
-1179 184 0
-1179 177 0
-1179 1177 0
-187 -194 1180 0
-188 -194 1180 0
-1180 194 0
-1180 187 188 0
-1180 1177 0
-197 -203 1181 0
-198 -203 1181 0
-1181 203 0
-1181 197 198 0
-1181 1177 0
-1177 1178 1179 1180 1181 0
-166 -174 1183 0
-1183 174 0
-1183 166 0
-1183 1182 0
-177 -185 1184 0
-1184 185 0
-1184 177 0
-1184 1182 0
-187 -195 1185 0
-188 -195 1185 0
-1185 195 0
-1185 187 188 0
-1185 1182 0
-197 -204 1186 0
-198 -204 1186 0
-1186 204 0
-1186 197 198 0
-1186 1182 0
-1182 1183 1184 1185 1186 0
-167 -171 1188 0
-1188 171 0
-1188 167 0
-1188 1187 0
-178 -182 1189 0
-1189 182 0
-1189 178 0
-1189 1187 0
-188 -192 1190 0
-189 -192 1190 0
-1190 192 0
-1190 188 189 0
-1190 1187 0
-197 -201 1191 0
-198 -201 1191 0
-199 -201 1191 0
-1191 201 0
-1191 197 198 199 0
-1191 1187 0
-1187 1188 1189 1190 1191 0
-167 -172 1193 0
-1193 172 0
-1193 167 0
-1193 1192 0
-178 -183 1194 0
-1194 183 0
-1194 178 0
-1194 1192 0
-188 -193 1195 0
-189 -193 1195 0
-1195 193 0
-1195 188 189 0
-1195 1192 0
-197 -202 1196 0
-198 -202 1196 0
-199 -202 1196 0
-1196 202 0
-1196 197 198 199 0
-1196 1192 0
-1192 1193 1194 1195 1196 0
-167 -173 1198 0
-1198 173 0
-1198 167 0
-1198 1197 0
-178 -184 1199 0
-1199 184 0
-1199 178 0
-1199 1197 0
-188 -194 1200 0
-189 -194 1200 0
-1200 194 0
-1200 188 189 0
-1200 1197 0
-197 -203 1201 0
-198 -203 1201 0
-199 -203 1201 0
-1201 203 0
-1201 197 198 199 0
-1201 1197 0
-1197 1198 1199 1200 1201 0
-167 -174 1203 0
-1203 174 0
-1203 167 0
-1203 1202 0
-178 -185 1204 0
-1204 185 0
-1204 178 0
-1204 1202 0
-188 -195 1205 0
-189 -195 1205 0
-1205 195 0
-1205 188 189 0
-1205 1202 0
-197 -204 1206 0
-198 -204 1206 0
-199 -204 1206 0
-1206 204 0
-1206 197 198 199 0
-1206 1202 0
-1202 1203 1204 1205 1206 0
-168 -171 1208 0
-1208 171 0
-1208 168 0
-1208 1207 0
-179 -182 1209 0
-1209 182 0
-1209 179 0
-1209 1207 0
-189 -192 1210 0
-190 -192 1210 0
-1210 192 0
-1210 189 190 0
-1210 1207 0
-198 -201 1211 0
-199 -201 1211 0
-200 -201 1211 0
-1211 201 0
-1211 198 199 200 0
-1211 1207 0
-1207 1208 1209 1210 1211 0
-168 -172 1213 0
-1213 172 0
-1213 168 0
-1213 1212 0
-179 -183 1214 0
-1214 183 0
-1214 179 0
-1214 1212 0
-189 -193 1215 0
-190 -193 1215 0
-1215 193 0
-1215 189 190 0
-1215 1212 0
-198 -202 1216 0
-199 -202 1216 0
-200 -202 1216 0
-1216 202 0
-1216 198 199 200 0
-1216 1212 0
-1212 1213 1214 1215 1216 0
-168 -173 1218 0
-1218 173 0
-1218 168 0
-1218 1217 0
-179 -184 1219 0
-1219 184 0
-1219 179 0
-1219 1217 0
-189 -194 1220 0
-190 -194 1220 0
-1220 194 0
-1220 189 190 0
-1220 1217 0
-198 -203 1221 0
-199 -203 1221 0
-200 -203 1221 0
-1221 203 0
-1221 198 199 200 0
-1221 1217 0
-1217 1218 1219 1220 1221 0
-168 -174 1223 0
-1223 174 0
-1223 168 0
-1223 1222 0
-179 -185 1224 0
-1224 185 0
-1224 179 0
-1224 1222 0
-189 -195 1225 0
-190 -195 1225 0
-1225 195 0
-1225 189 190 0
-1225 1222 0
-198 -204 1226 0
-199 -204 1226 0
-200 -204 1226 0
-1226 204 0
-1226 198 199 200 0
-1226 1222 0
-1222 1223 1224 1225 1226 0
-169 -171 1228 0
-1228 171 0
-1228 169 0
-1228 1227 0
-180 -182 1229 0
-1229 182 0
-1229 180 0
-1229 1227 0
-190 -192 1230 0
-191 -192 1230 0
-1230 192 0
-1230 190 191 0
-1230 1227 0
-199 -201 1231 0
-200 -201 1231 0
-1231 201 0
-1231 199 200 0
-1231 1227 0
-1227 1228 1229 1230 1231 0
-169 -172 1233 0
-1233 172 0
-1233 169 0
-1233 1232 0
-180 -183 1234 0
-1234 183 0
-1234 180 0
-1234 1232 0
-190 -193 1235 0
-191 -193 1235 0
-1235 193 0
-1235 190 191 0
-1235 1232 0
-199 -202 1236 0
-200 -202 1236 0
-1236 202 0
-1236 199 200 0
-1236 1232 0
-1232 1233 1234 1235 1236 0
-169 -173 1238 0
-1238 173 0
-1238 169 0
-1238 1237 0
-180 -184 1239 0
-1239 184 0
-1239 180 0
-1239 1237 0
-190 -194 1240 0
-191 -194 1240 0
-1240 194 0
-1240 190 191 0
-1240 1237 0
-199 -203 1241 0
-200 -203 1241 0
-1241 203 0
-1241 199 200 0
-1241 1237 0
-1237 1238 1239 1240 1241 0
-169 -174 1243 0
-1243 174 0
-1243 169 0
-1243 1242 0
-180 -185 1244 0
-1244 185 0
-1244 180 0
-1244 1242 0
-190 -195 1245 0
-191 -195 1245 0
-1245 195 0
-1245 190 191 0
-1245 1242 0
-199 -204 1246 0
-200 -204 1246 0
-1246 204 0
-1246 199 200 0
-1246 1242 0
-1242 1243 1244 1245 1246 0
-170 -171 1248 0
-1248 171 0
-1248 170 0
-1248 1247 0
-181 -182 1249 0
-1249 182 0
-1249 181 0
-1249 1247 0
-191 -192 1250 0
-1250 192 0
-1250 191 0
-1250 1247 0
-200 -201 1251 0
-1251 201 0
-1251 200 0
-1251 1247 0
-1247 1248 1249 1250 1251 0
-170 -172 1253 0
-1253 172 0
-1253 170 0
-1253 1252 0
-181 -183 1254 0
-1254 183 0
-1254 181 0
-1254 1252 0
-191 -193 1255 0
-1255 193 0
-1255 191 0
-1255 1252 0
-200 -202 1256 0
-1256 202 0
-1256 200 0
-1256 1252 0
-1252 1253 1254 1255 1256 0
-170 -173 1258 0
-1258 173 0
-1258 170 0
-1258 1257 0
-181 -184 1259 0
-1259 184 0
-1259 181 0
-1259 1257 0
-191 -194 1260 0
-1260 194 0
-1260 191 0
-1260 1257 0
-200 -203 1261 0
-1261 203 0
-1261 200 0
-1261 1257 0
-1257 1258 1259 1260 1261 0
-170 -174 1263 0
-1263 174 0
-1263 170 0
-1263 1262 0
-181 -185 1264 0
-1264 185 0
-1264 181 0
-1264 1262 0
-191 -195 1265 0
-1265 195 0
-1265 191 0
-1265 1262 0
-200 -204 1266 0
-1266 204 0
-1266 200 0
-1266 1262 0
-1262 1263 1264 1265 1266 0
-206 -212 1268 0
-1268 212 0
-1268 206 0
-1268 1267 0
-217 -223 1269 0
-1269 223 0
-1269 217 0
-1269 1267 0
-228 -233 1270 0
-1270 233 0
-1270 228 0
-1270 1267 0
-238 -242 1271 0
-1271 242 0
-1271 238 0
-1271 1267 0
-1267 1268 1269 1270 1271 0
-206 -213 1273 0
-1273 213 0
-1273 206 0
-1273 1272 0
-217 -224 1274 0
-1274 224 0
-1274 217 0
-1274 1272 0
-228 -234 1275 0
-1275 234 0
-1275 228 0
-1275 1272 0
-238 -243 1276 0
-1276 243 0
-1276 238 0
-1276 1272 0
-1272 1273 1274 1275 1276 0
-206 -214 1278 0
-1278 214 0
-1278 206 0
-1278 1277 0
-217 -225 1279 0
-1279 225 0
-1279 217 0
-1279 1277 0
-228 -235 1280 0
-1280 235 0
-1280 228 0
-1280 1277 0
-238 -244 1281 0
-1281 244 0
-1281 238 0
-1281 1277 0
-1277 1278 1279 1280 1281 0
-206 -215 1283 0
-1283 215 0
-1283 206 0
-1283 1282 0
-217 -226 1284 0
-1284 226 0
-1284 217 0
-1284 1282 0
-228 -236 1285 0
-1285 236 0
-1285 228 0
-1285 1282 0
-238 -245 1286 0
-1286 245 0
-1286 238 0
-1286 1282 0
-1282 1283 1284 1285 1286 0
-207 -212 1288 0
-1288 212 0
-1288 207 0
-1288 1287 0
-218 -223 1289 0
-1289 223 0
-1289 218 0
-1289 1287 0
-228 -233 1290 0
-229 -233 1290 0
-1290 233 0
-1290 228 229 0
-1290 1287 0
-238 -242 1291 0
-239 -242 1291 0
-1291 242 0
-1291 238 239 0
-1291 1287 0
-1287 1288 1289 1290 1291 0
-207 -213 1293 0
-1293 213 0
-1293 207 0
-1293 1292 0
-218 -224 1294 0
-1294 224 0
-1294 218 0
-1294 1292 0
-228 -234 1295 0
-229 -234 1295 0
-1295 234 0
-1295 228 229 0
-1295 1292 0
-238 -243 1296 0
-239 -243 1296 0
-1296 243 0
-1296 238 239 0
-1296 1292 0
-1292 1293 1294 1295 1296 0
-207 -214 1298 0
-1298 214 0
-1298 207 0
-1298 1297 0
-218 -225 1299 0
-1299 225 0
-1299 218 0
-1299 1297 0
-228 -235 1300 0
-229 -235 1300 0
-1300 235 0
-1300 228 229 0
-1300 1297 0
-238 -244 1301 0
-239 -244 1301 0
-1301 244 0
-1301 238 239 0
-1301 1297 0
-1297 1298 1299 1300 1301 0
-207 -215 1303 0
-1303 215 0
-1303 207 0
-1303 1302 0
-218 -226 1304 0
-1304 226 0
-1304 218 0
-1304 1302 0
-228 -236 1305 0
-229 -236 1305 0
-1305 236 0
-1305 228 229 0
-1305 1302 0
-238 -245 1306 0
-239 -245 1306 0
-1306 245 0
-1306 238 239 0
-1306 1302 0
-1302 1303 1304 1305 1306 0
-208 -212 1308 0
-1308 212 0
-1308 208 0
-1308 1307 0
-219 -223 1309 0
-1309 223 0
-1309 219 0
-1309 1307 0
-229 -233 1310 0
-230 -233 1310 0
-1310 233 0
-1310 229 230 0
-1310 1307 0
-238 -242 1311 0
-239 -242 1311 0
-240 -242 1311 0
-1311 242 0
-1311 238 239 240 0
-1311 1307 0
-1307 1308 1309 1310 1311 0
-208 -213 1313 0
-1313 213 0
-1313 208 0
-1313 1312 0
-219 -224 1314 0
-1314 224 0
-1314 219 0
-1314 1312 0
-229 -234 1315 0
-230 -234 1315 0
-1315 234 0
-1315 229 230 0
-1315 1312 0
-238 -243 1316 0
-239 -243 1316 0
-240 -243 1316 0
-1316 243 0
-1316 238 239 240 0
-1316 1312 0
-1312 1313 1314 1315 1316 0
-208 -214 1318 0
-1318 214 0
-1318 208 0
-1318 1317 0
-219 -225 1319 0
-1319 225 0
-1319 219 0
-1319 1317 0
-229 -235 1320 0
-230 -235 1320 0
-1320 235 0
-1320 229 230 0
-1320 1317 0
-238 -244 1321 0
-239 -244 1321 0
-240 -244 1321 0
-1321 244 0
-1321 238 239 240 0
-1321 1317 0
-1317 1318 1319 1320 1321 0
-208 -215 1323 0
-1323 215 0
-1323 208 0
-1323 1322 0
-219 -226 1324 0
-1324 226 0
-1324 219 0
-1324 1322 0
-229 -236 1325 0
-230 -236 1325 0
-1325 236 0
-1325 229 230 0
-1325 1322 0
-238 -245 1326 0
-239 -245 1326 0
-240 -245 1326 0
-1326 245 0
-1326 238 239 240 0
-1326 1322 0
-1322 1323 1324 1325 1326 0
-209 -212 1328 0
-1328 212 0
-1328 209 0
-1328 1327 0
-220 -223 1329 0
-1329 223 0
-1329 220 0
-1329 1327 0
-230 -233 1330 0
-231 -233 1330 0
-1330 233 0
-1330 230 231 0
-1330 1327 0
-239 -242 1331 0
-240 -242 1331 0
-241 -242 1331 0
-1331 242 0
-1331 239 240 241 0
-1331 1327 0
-1327 1328 1329 1330 1331 0
-209 -213 1333 0
-1333 213 0
-1333 209 0
-1333 1332 0
-220 -224 1334 0
-1334 224 0
-1334 220 0
-1334 1332 0
-230 -234 1335 0
-231 -234 1335 0
-1335 234 0
-1335 230 231 0
-1335 1332 0
-239 -243 1336 0
-240 -243 1336 0
-241 -243 1336 0
-1336 243 0
-1336 239 240 241 0
-1336 1332 0
-1332 1333 1334 1335 1336 0
-209 -214 1338 0
-1338 214 0
-1338 209 0
-1338 1337 0
-220 -225 1339 0
-1339 225 0
-1339 220 0
-1339 1337 0
-230 -235 1340 0
-231 -235 1340 0
-1340 235 0
-1340 230 231 0
-1340 1337 0
-239 -244 1341 0
-240 -244 1341 0
-241 -244 1341 0
-1341 244 0
-1341 239 240 241 0
-1341 1337 0
-1337 1338 1339 1340 1341 0
-209 -215 1343 0
-1343 215 0
-1343 209 0
-1343 1342 0
-220 -226 1344 0
-1344 226 0
-1344 220 0
-1344 1342 0
-230 -236 1345 0
-231 -236 1345 0
-1345 236 0
-1345 230 231 0
-1345 1342 0
-239 -245 1346 0
-240 -245 1346 0
-241 -245 1346 0
-1346 245 0
-1346 239 240 241 0
-1346 1342 0
-1342 1343 1344 1345 1346 0
-210 -212 1348 0
-1348 212 0
-1348 210 0
-1348 1347 0
-221 -223 1349 0
-1349 223 0
-1349 221 0
-1349 1347 0
-231 -233 1350 0
-232 -233 1350 0
-1350 233 0
-1350 231 232 0
-1350 1347 0
-240 -242 1351 0
-241 -242 1351 0
-1351 242 0
-1351 240 241 0
-1351 1347 0
-1347 1348 1349 1350 1351 0
-210 -213 1353 0
-1353 213 0
-1353 210 0
-1353 1352 0
-221 -224 1354 0
-1354 224 0
-1354 221 0
-1354 1352 0
-231 -234 1355 0
-232 -234 1355 0
-1355 234 0
-1355 231 232 0
-1355 1352 0
-240 -243 1356 0
-241 -243 1356 0
-1356 243 0
-1356 240 241 0
-1356 1352 0
-1352 1353 1354 1355 1356 0
-210 -214 1358 0
-1358 214 0
-1358 210 0
-1358 1357 0
-221 -225 1359 0
-1359 225 0
-1359 221 0
-1359 1357 0
-231 -235 1360 0
-232 -235 1360 0
-1360 235 0
-1360 231 232 0
-1360 1357 0
-240 -244 1361 0
-241 -244 1361 0
-1361 244 0
-1361 240 241 0
-1361 1357 0
-1357 1358 1359 1360 1361 0
-210 -215 1363 0
-1363 215 0
-1363 210 0
-1363 1362 0
-221 -226 1364 0
-1364 226 0
-1364 221 0
-1364 1362 0
-231 -236 1365 0
-232 -236 1365 0
-1365 236 0
-1365 231 232 0
-1365 1362 0
-240 -245 1366 0
-241 -245 1366 0
-1366 245 0
-1366 240 241 0
-1366 1362 0
-1362 1363 1364 1365 1366 0
-211 -212 1368 0
-1368 212 0
-1368 211 0
-1368 1367 0
-222 -223 1369 0
-1369 223 0
-1369 222 0
-1369 1367 0
-232 -233 1370 0
-1370 233 0
-1370 232 0
-1370 1367 0
-241 -242 1371 0
-1371 242 0
-1371 241 0
-1371 1367 0
-1367 1368 1369 1370 1371 0
-211 -213 1373 0
-1373 213 0
-1373 211 0
-1373 1372 0
-222 -224 1374 0
-1374 224 0
-1374 222 0
-1374 1372 0
-232 -234 1375 0
-1375 234 0
-1375 232 0
-1375 1372 0
-241 -243 1376 0
-1376 243 0
-1376 241 0
-1376 1372 0
-1372 1373 1374 1375 1376 0
-211 -214 1378 0
-1378 214 0
-1378 211 0
-1378 1377 0
-222 -225 1379 0
-1379 225 0
-1379 222 0
-1379 1377 0
-232 -235 1380 0
-1380 235 0
-1380 232 0
-1380 1377 0
-241 -244 1381 0
-1381 244 0
-1381 241 0
-1381 1377 0
-1377 1378 1379 1380 1381 0
-211 -215 1383 0
-1383 215 0
-1383 211 0
-1383 1382 0
-222 -226 1384 0
-1384 226 0
-1384 222 0
-1384 1382 0
-232 -236 1385 0
-1385 236 0
-1385 232 0
-1385 1382 0
-241 -245 1386 0
-1386 245 0
-1386 241 0
-1386 1382 0
-1382 1383 1384 1385 1386 0
1 0
8 0
13 0
19 0
23 0
28 0
36 0
37 0
210 0
214 0
222 0
225 0
232 0
234 0
241 0
242 0
1 2 3 4 5 6 0
-1 -2 0
-1 -3 0
-1 -4 0
-1 -5 0
-1 -6 0
-2 -3 0
-2 -4 0
-2 -5 0
-2 -6 0
-3 -4 0
-3 -5 0
-3 -6 0
-4 -5 0
-4 -6 0
-5 -6 0
7 8 9 10 0
-7 -8 0
-7 -9 0
-7 -10 0
-8 -9 0
-8 -10 0
-9 -10 0
12 13 14 15 16 17 0
-12 -13 0
-12 -14 0
-12 -15 0
-12 -16 0
-12 -17 0
-13 -14 0
-13 -15 0
-13 -16 0
-13 -17 0
-14 -15 0
-14 -16 0
-14 -17 0
-15 -16 0
-15 -17 0
-16 -17 0
18 19 20 21 0
-18 -19 0
-18 -20 0
-18 -21 0
-19 -20 0
-19 -21 0
-20 -21 0
23 24 25 26 27 0
-23 -24 0
-23 -25 0
-23 -26 0
-23 -27 0
-24 -25 0
-24 -26 0
-24 -27 0
-25 -26 0
-25 -27 0
-26 -27 0
28 29 30 31 0
-28 -29 0
-28 -30 0
-28 -31 0
-29 -30 0
-29 -31 0
-30 -31 0
33 34 35 36 0
-33 -34 0
-33 -35 0
-33 -36 0
-34 -35 0
-34 -36 0
-35 -36 0
37 38 39 40 0
-37 -38 0
-37 -39 0
-37 -40 0
-38 -39 0
-38 -40 0
-39 -40 0
42 43 44 45 46 47 0
-42 -43 0
-42 -44 0
-42 -45 0
-42 -46 0
-42 -47 0
-43 -44 0
-43 -45 0
-43 -46 0
-43 -47 0
-44 -45 0
-44 -46 0
-44 -47 0
-45 -46 0
-45 -47 0
-46 -47 0
48 49 50 51 0
-48 -49 0
-48 -50 0
-48 -51 0
-49 -50 0
-49 -51 0
-50 -51 0
53 54 55 56 57 58 0
-53 -54 0
-53 -55 0
-53 -56 0
-53 -57 0
-53 -58 0
-54 -55 0
-54 -56 0
-54 -57 0
-54 -58 0
-55 -56 0
-55 -57 0
-55 -58 0
-56 -57 0
-56 -58 0
-57 -58 0
59 60 61 62 0
-59 -60 0
-59 -61 0
-59 -62 0
-60 -61 0
-60 -62 0
-61 -62 0
64 65 66 67 68 0
-64 -65 0
-64 -66 0
-64 -67 0
-64 -68 0
-65 -66 0
-65 -67 0
-65 -68 0
-66 -67 0
-66 -68 0
-67 -68 0
69 70 71 72 0
-69 -70 0
-69 -71 0
-69 -72 0
-70 -71 0
-70 -72 0
-71 -72 0
74 75 76 77 0
-74 -75 0
-74 -76 0
-74 -77 0
-75 -76 0
-75 -77 0
-76 -77 0
78 79 80 81 0
-78 -79 0
-78 -80 0
-78 -81 0
-79 -80 0
-79 -81 0
-80 -81 0
83 84 85 86 87 88 0
-83 -84 0
-83 -85 0
-83 -86 0
-83 -87 0
-83 -88 0
-84 -85 0
-84 -86 0
-84 -87 0
-84 -88 0
-85 -86 0
-85 -87 0
-85 -88 0
-86 -87 0
-86 -88 0
-87 -88 0
89 90 91 92 0
-89 -90 0
-89 -91 0
-89 -92 0
-90 -91 0
-90 -92 0
-91 -92 0
94 95 96 97 98 99 0
-94 -95 0
-94 -96 0
-94 -97 0
-94 -98 0
-94 -99 0
-95 -96 0
-95 -97 0
-95 -98 0
-95 -99 0
-96 -97 0
-96 -98 0
-96 -99 0
-97 -98 0
-97 -99 0
-98 -99 0
100 101 102 103 0
-100 -101 0
-100 -102 0
-100 -103 0
-101 -102 0
-101 -103 0
-102 -103 0
105 106 107 108 109 0
-105 -106 0
-105 -107 0
-105 -108 0
-105 -109 0
-106 -107 0
-106 -108 0
-106 -109 0
-107 -108 0
-107 -109 0
-108 -109 0
110 111 112 113 0
-110 -111 0
-110 -112 0
-110 -113 0
-111 -112 0
-111 -113 0
-112 -113 0
115 116 117 118 0
-115 -116 0
-115 -117 0
-115 -118 0
-116 -117 0
-116 -118 0
-117 -118 0
119 120 121 122 0
-119 -120 0
-119 -121 0
-119 -122 0
-120 -121 0
-120 -122 0
-121 -122 0
124 125 126 127 128 129 0
-124 -125 0
-124 -126 0
-124 -127 0
-124 -128 0
-124 -129 0
-125 -126 0
-125 -127 0
-125 -128 0
-125 -129 0
-126 -127 0
-126 -128 0
-126 -129 0
-127 -128 0
-127 -129 0
-128 -129 0
130 131 132 133 0
-130 -131 0
-130 -132 0
-130 -133 0
-131 -132 0
-131 -133 0
-132 -133 0
135 136 137 138 139 140 0
-135 -136 0
-135 -137 0
-135 -138 0
-135 -139 0
-135 -140 0
-136 -137 0
-136 -138 0
-136 -139 0
-136 -140 0
-137 -138 0
-137 -139 0
-137 -140 0
-138 -139 0
-138 -140 0
-139 -140 0
141 142 143 144 0
-141 -142 0
-141 -143 0
-141 -144 0
-142 -143 0
-142 -144 0
-143 -144 0
146 147 148 149 150 0
-146 -147 0
-146 -148 0
-146 -149 0
-146 -150 0
-147 -148 0
-147 -149 0
-147 -150 0
-148 -149 0
-148 -150 0
-149 -150 0
151 152 153 154 0
-151 -152 0
-151 -153 0
-151 -154 0
-152 -153 0
-152 -154 0
-153 -154 0
156 157 158 159 0
-156 -157 0
-156 -158 0
-156 -159 0
-157 -158 0
-157 -159 0
-158 -159 0
160 161 162 163 0
-160 -161 0
-160 -162 0
-160 -163 0
-161 -162 0
-161 -163 0
-162 -163 0
165 166 167 168 169 170 0
-165 -166 0
-165 -167 0
-165 -168 0
-165 -169 0
-165 -170 0
-166 -167 0
-166 -168 0
-166 -169 0
-166 -170 0
-167 -168 0
-167 -169 0
-167 -170 0
-168 -169 0
-168 -170 0
-169 -170 0
171 172 173 174 0
-171 -172 0
-171 -173 0
-171 -174 0
-172 -173 0
-172 -174 0
-173 -174 0
176 177 178 179 180 181 0
-176 -177 0
-176 -178 0
-176 -179 0
-176 -180 0
-176 -181 0
-177 -178 0
-177 -179 0
-177 -180 0
-177 -181 0
-178 -179 0
-178 -180 0
-178 -181 0
-179 -180 0
-179 -181 0
-180 -181 0
182 183 184 185 0
-182 -183 0
-182 -184 0
-182 -185 0
-183 -184 0
-183 -185 0
-184 -185 0
187 188 189 190 191 0
-187 -188 0
-187 -189 0
-187 -190 0
-187 -191 0
-188 -189 0
-188 -190 0
-188 -191 0
-189 -190 0
-189 -191 0
-190 -191 0
192 193 194 195 0
-192 -193 0
-192 -194 0
-192 -195 0
-193 -194 0
-193 -195 0
-194 -195 0
197 198 199 200 0
-197 -198 0
-197 -199 0
-197 -200 0
-198 -199 0
-198 -200 0
-199 -200 0
201 202 203 204 0
-201 -202 0
-201 -203 0
-201 -204 0
-202 -203 0
-202 -204 0
-203 -204 0
206 207 208 209 210 211 0
-206 -207 0
-206 -208 0
-206 -209 0
-206 -210 0
-206 -211 0
-207 -208 0
-207 -209 0
-207 -210 0
-207 -211 0
-208 -209 0
-208 -210 0
-208 -211 0
-209 -210 0
-209 -211 0
-210 -211 0
212 213 214 215 0
-212 -213 0
-212 -214 0
-212 -215 0
-213 -214 0
-213 -215 0
-214 -215 0
217 218 219 220 221 222 0
-217 -218 0
-217 -219 0
-217 -220 0
-217 -221 0
-217 -222 0
-218 -219 0
-218 -220 0
-218 -221 0
-218 -222 0
-219 -220 0
-219 -221 0
-219 -222 0
-220 -221 0
-220 -222 0
-221 -222 0
223 224 225 226 0
-223 -224 0
-223 -225 0
-223 -226 0
-224 -225 0
-224 -226 0
-225 -226 0
228 229 230 231 232 0
-228 -229 0
-228 -230 0
-228 -231 0
-228 -232 0
-229 -230 0
-229 -231 0
-229 -232 0
-230 -231 0
-230 -232 0
-231 -232 0
233 234 235 236 0
-233 -234 0
-233 -235 0
-233 -236 0
-234 -235 0
-234 -236 0
-235 -236 0
238 239 240 241 0
-238 -239 0
-238 -240 0
-238 -241 0
-239 -240 0
-239 -241 0
-240 -241 0
242 243 244 245 0
-242 -243 0
-242 -244 0
-242 -245 0
-243 -244 0
-243 -245 0
-244 -245 0
-1 -7 -12 -18 0
-1 -8 -12 -19 0
-1 -9 -12 -20 0
-1 -10 -12 -21 0
-2 -7 -13 -18 0
-2 -8 -13 -19 0
-2 -9 -13 -20 0
-2 -10 -13 -21 0
-3 -7 -14 -18 0
-3 -8 -14 -19 0
-3 -9 -14 -20 0
-3 -10 -14 -21 0
-4 -7 -15 -18 0
-4 -8 -15 -19 0
-4 -9 -15 -20 0
-4 -10 -15 -21 0
-5 -7 -16 -18 0
-5 -8 -16 -19 0
-5 -9 -16 -20 0
-5 -10 -16 -21 0
-6 -7 -17 -18 0
-6 -8 -17 -19 0
-6 -9 -17 -20 0
-6 -10 -17 -21 0
-1 -7 -23 -28 0
-1 -8 -23 -29 0
-1 -9 -23 -30 0
-1 -10 -23 -31 0
-2 -7 -23 -28 0
-2 -8 -23 -29 0
-2 -9 -23 -30 0
-2 -10 -23 -31 0
-2 -7 -24 -28 0
-2 -8 -24 -29 0
-2 -9 -24 -30 0
-2 -10 -24 -31 0
-3 -7 -24 -28 0
-3 -8 -24 -29 0
-3 -9 -24 -30 0
-3 -10 -24 -31 0
-3 -7 -25 -28 0
-3 -8 -25 -29 0
-3 -9 -25 -30 0
-3 -10 -25 -31 0
-4 -7 -25 -28 0
-4 -8 -25 -29 0
-4 -9 -25 -30 0
-4 -10 -25 -31 0
-4 -7 -26 -28 0
-4 -8 -26 -29 0
-4 -9 -26 -30 0
-4 -10 -26 -31 0
-5 -7 -26 -28 0
-5 -8 -26 -29 0
-5 -9 -26 -30 0
-5 -10 -26 -31 0
-5 -7 -27 -28 0
-5 -8 -27 -29 0
-5 -9 -27 -30 0
-5 -10 -27 -31 0
-6 -7 -27 -28 0
-6 -8 -27 -29 0
-6 -9 -27 -30 0
-6 -10 -27 -31 0
-1 -7 -33 -37 0
-1 -8 -33 -38 0
-1 -9 -33 -39 0
-1 -10 -33 -40 0
-2 -7 -33 -37 0
-2 -8 -33 -38 0
-2 -9 -33 -39 0
-2 -10 -33 -40 0
-2 -7 -34 -37 0
-2 -8 -34 -38 0
-2 -9 -34 -39 0
-2 -10 -34 -40 0
-3 -7 -33 -37 0
-3 -8 -33 -38 0
-3 -9 -33 -39 0
-3 -10 -33 -40 0
-3 -7 -34 -37 0
-3 -8 -34 -38 0
-3 -9 -34 -39 0
-3 -10 -34 -40 0
-3 -7 -35 -37 0
-3 -8 -35 -38 0
-3 -9 -35 -39 0
-3 -10 -35 -40 0
-4 -7 -34 -37 0
-4 -8 -34 -38 0
-4 -9 -34 -39 0
-4 -10 -34 -40 0
-4 -7 -35 -37 0
-4 -8 -35 -38 0
-4 -9 -35 -39 0
-4 -10 -35 -40 0
-4 -7 -36 -37 0
-4 -8 -36 -38 0
-4 -9 -36 -39 0
-4 -10 -36 -40 0
-5 -7 -35 -37 0
-5 -8 -35 -38 0
-5 -9 -35 -39 0
-5 -10 -35 -40 0
-5 -7 -36 -37 0
-5 -8 -36 -38 0
-5 -9 -36 -39 0
-5 -10 -36 -40 0
-6 -7 -36 -37 0
-6 -8 -36 -38 0
-6 -9 -36 -39 0
-6 -10 -36 -40 0
-12 -18 -23 -28 0
-12 -19 -23 -29 0
-12 -20 -23 -30 0
-12 -21 -23 -31 0
-13 -18 -23 -28 0
-13 -19 -23 -29 0
-13 -20 -23 -30 0
-13 -21 -23 -31 0
-13 -18 -24 -28 0
-13 -19 -24 -29 0
-13 -20 -24 -30 0
-13 -21 -24 -31 0
-14 -18 -24 -28 0
-14 -19 -24 -29 0
-14 -20 -24 -30 0
-14 -21 -24 -31 0
-14 -18 -25 -28 0
-14 -19 -25 -29 0
-14 -20 -25 -30 0
-14 -21 -25 -31 0
-15 -18 -25 -28 0
-15 -19 -25 -29 0
-15 -20 -25 -30 0
-15 -21 -25 -31 0
-15 -18 -26 -28 0
-15 -19 -26 -29 0
-15 -20 -26 -30 0
-15 -21 -26 -31 0
-16 -18 -26 -28 0
-16 -19 -26 -29 0
-16 -20 -26 -30 0
-16 -21 -26 -31 0
-16 -18 -27 -28 0
-16 -19 -27 -29 0
-16 -20 -27 -30 0
-16 -21 -27 -31 0
-17 -18 -27 -28 0
-17 -19 -27 -29 0
-17 -20 -27 -30 0
-17 -21 -27 -31 0
-12 -18 -33 -37 0
-12 -19 -33 -38 0
-12 -20 -33 -39 0
-12 -21 -33 -40 0
-13 -18 -33 -37 0
-13 -19 -33 -38 0
-13 -20 -33 -39 0
-13 -21 -33 -40 0
-13 -18 -34 -37 0
-13 -19 -34 -38 0
-13 -20 -34 -39 0
-13 -21 -34 -40 0
-14 -18 -33 -37 0
-14 -19 -33 -38 0
-14 -20 -33 -39 0
-14 -21 -33 -40 0
-14 -18 -34 -37 0
-14 -19 -34 -38 0
-14 -20 -34 -39 0
-14 -21 -34 -40 0
-14 -18 -35 -37 0
-14 -19 -35 -38 0
-14 -20 -35 -39 0
-14 -21 -35 -40 0
-15 -18 -34 -37 0
-15 -19 -34 -38 0
-15 -20 -34 -39 0
-15 -21 -34 -40 0
-15 -18 -35 -37 0
-15 -19 -35 -38 0
-15 -20 -35 -39 0
-15 -21 -35 -40 0
-15 -18 -36 -37 0
-15 -19 -36 -38 0
-15 -20 -36 -39 0
-15 -21 -36 -40 0
-16 -18 -35 -37 0
-16 -19 -35 -38 0
-16 -20 -35 -39 0
-16 -21 -35 -40 0
-16 -18 -36 -37 0
-16 -19 -36 -38 0
-16 -20 -36 -39 0
-16 -21 -36 -40 0
-17 -18 -36 -37 0
-17 -19 -36 -38 0
-17 -20 -36 -39 0
-17 -21 -36 -40 0
-23 -28 -33 -37 0
-23 -29 -33 -38 0
-23 -30 -33 -39 0
-23 -31 -33 -40 0
-23 -28 -34 -37 0
-23 -29 -34 -38 0
-23 -30 -34 -39 0
-23 -31 -34 -40 0
-24 -28 -33 -37 0
-24 -29 -33 -38 0
-24 -30 -33 -39 0
-24 -31 -33 -40 0
-24 -28 -34 -37 0
-24 -29 -34 -38 0
-24 -30 -34 -39 0
-24 -31 -34 -40 0
-24 -28 -35 -37 0
-24 -29 -35 -38 0
-24 -30 -35 -39 0
-24 -31 -35 -40 0
-25 -28 -33 -37 0
-25 -29 -33 -38 0
-25 -30 -33 -39 0
-25 -31 -33 -40 0
-25 -28 -34 -37 0
-25 -29 -34 -38 0
-25 -30 -34 -39 0
-25 -31 -34 -40 0
-25 -28 -35 -37 0
-25 -29 -35 -38 0
-25 -30 -35 -39 0
-25 -31 -35 -40 0
-25 -28 -36 -37 0
-25 -29 -36 -38 0
-25 -30 -36 -39 0
-25 -31 -36 -40 0
-26 -28 -34 -37 0
-26 -29 -34 -38 0
-26 -30 -34 -39 0
-26 -31 -34 -40 0
-26 -28 -35 -37 0
-26 -29 -35 -38 0
-26 -30 -35 -39 0
-26 -31 -35 -40 0
-26 -28 -36 -37 0
-26 -29 -36 -38 0
-26 -30 -36 -39 0
-26 -31 -36 -40 0
-27 -28 -35 -37 0
-27 -29 -35 -38 0
-27 -30 -35 -39 0
-27 -31 -35 -40 0
-27 -28 -36 -37 0
-27 -29 -36 -38 0
-27 -30 -36 -39 0
-27 -31 -36 -40 0
-42 -48 -53 -59 0
-42 -49 -53 -60 0
-42 -50 -53 -61 0
-42 -51 -53 -62 0
-43 -48 -54 -59 0
-43 -49 -54 -60 0
-43 -50 -54 -61 0
-43 -51 -54 -62 0
-44 -48 -55 -59 0
-44 -49 -55 -60 0
-44 -50 -55 -61 0
-44 -51 -55 -62 0
-45 -48 -56 -59 0
-45 -49 -56 -60 0
-45 -50 -56 -61 0
-45 -51 -56 -62 0
-46 -48 -57 -59 0
-46 -49 -57 -60 0
-46 -50 -57 -61 0
-46 -51 -57 -62 0
-47 -48 -58 -59 0
-47 -49 -58 -60 0
-47 -50 -58 -61 0
-47 -51 -58 -62 0
-42 -48 -64 -69 0
-42 -49 -64 -70 0
-42 -50 -64 -71 0
-42 -51 -64 -72 0
-43 -48 -64 -69 0
-43 -49 -64 -70 0
-43 -50 -64 -71 0
-43 -51 -64 -72 0
-43 -48 -65 -69 0
-43 -49 -65 -70 0
-43 -50 -65 -71 0
-43 -51 -65 -72 0
-44 -48 -65 -69 0
-44 -49 -65 -70 0
-44 -50 -65 -71 0
-44 -51 -65 -72 0
-44 -48 -66 -69 0
-44 -49 -66 -70 0
-44 -50 -66 -71 0
-44 -51 -66 -72 0
-45 -48 -66 -69 0
-45 -49 -66 -70 0
-45 -50 -66 -71 0
-45 -51 -66 -72 0
-45 -48 -67 -69 0
-45 -49 -67 -70 0
-45 -50 -67 -71 0
-45 -51 -67 -72 0
-46 -48 -67 -69 0
-46 -49 -67 -70 0
-46 -50 -67 -71 0
-46 -51 -67 -72 0
-46 -48 -68 -69 0
-46 -49 -68 -70 0
-46 -50 -68 -71 0
-46 -51 -68 -72 0
-47 -48 -68 -69 0
-47 -49 -68 -70 0
-47 -50 -68 -71 0
-47 -51 -68 -72 0
-42 -48 -74 -78 0
-42 -49 -74 -79 0
-42 -50 -74 -80 0
-42 -51 -74 -81 0
-43 -48 -74 -78 0
-43 -49 -74 -79 0
-43 -50 -74 -80 0
-43 -51 -74 -81 0
-43 -48 -75 -78 0
-43 -49 -75 -79 0
-43 -50 -75 -80 0
-43 -51 -75 -81 0
-44 -48 -74 -78 0
-44 -49 -74 -79 0
-44 -50 -74 -80 0
-44 -51 -74 -81 0
-44 -48 -75 -78 0
-44 -49 -75 -79 0
-44 -50 -75 -80 0
-44 -51 -75 -81 0
-44 -48 -76 -78 0
-44 -49 -76 -79 0
-44 -50 -76 -80 0
-44 -51 -76 -81 0
-45 -48 -75 -78 0
-45 -49 -75 -79 0
-45 -50 -75 -80 0
-45 -51 -75 -81 0
-45 -48 -76 -78 0
-45 -49 -76 -79 0
-45 -50 -76 -80 0
-45 -51 -76 -81 0
-45 -48 -77 -78 0
-45 -49 -77 -79 0
-45 -50 -77 -80 0
-45 -51 -77 -81 0
-46 -48 -76 -78 0
-46 -49 -76 -79 0
-46 -50 -76 -80 0
-46 -51 -76 -81 0
-46 -48 -77 -78 0
-46 -49 -77 -79 0
-46 -50 -77 -80 0
-46 -51 -77 -81 0
-47 -48 -77 -78 0
-47 -49 -77 -79 0
-47 -50 -77 -80 0
-47 -51 -77 -81 0
-53 -59 -64 -69 0
-53 -60 -64 -70 0
-53 -61 -64 -71 0
-53 -62 -64 -72 0
-54 -59 -64 -69 0
-54 -60 -64 -70 0
-54 -61 -64 -71 0
-54 -62 -64 -72 0
-54 -59 -65 -69 0
-54 -60 -65 -70 0
-54 -61 -65 -71 0
-54 -62 -65 -72 0
-55 -59 -65 -69 0
-55 -60 -65 -70 0
-55 -61 -65 -71 0
-55 -62 -65 -72 0
-55 -59 -66 -69 0
-55 -60 -66 -70 0
-55 -61 -66 -71 0
-55 -62 -66 -72 0
-56 -59 -66 -69 0
-56 -60 -66 -70 0
-56 -61 -66 -71 0
-56 -62 -66 -72 0
-56 -59 -67 -69 0
-56 -60 -67 -70 0
-56 -61 -67 -71 0
-56 -62 -67 -72 0
-57 -59 -67 -69 0
-57 -60 -67 -70 0
-57 -61 -67 -71 0
-57 -62 -67 -72 0
-57 -59 -68 -69 0
-57 -60 -68 -70 0
-57 -61 -68 -71 0
-57 -62 -68 -72 0
-58 -59 -68 -69 0
-58 -60 -68 -70 0
-58 -61 -68 -71 0
-58 -62 -68 -72 0
-53 -59 -74 -78 0
-53 -60 -74 -79 0
-53 -61 -74 -80 0
-53 -62 -74 -81 0
-54 -59 -74 -78 0
-54 -60 -74 -79 0
-54 -61 -74 -80 0
-54 -62 -74 -81 0
-54 -59 -75 -78 0
-54 -60 -75 -79 0
-54 -61 -75 -80 0
-54 -62 -75 -81 0
-55 -59 -74 -78 0
-55 -60 -74 -79 0
-55 -61 -74 -80 0
-55 -62 -74 -81 0
-55 -59 -75 -78 0
-55 -60 -75 -79 0
-55 -61 -75 -80 0
-55 -62 -75 -81 0
-55 -59 -76 -78 0
-55 -60 -76 -79 0
-55 -61 -76 -80 0
-55 -62 -76 -81 0
-56 -59 -75 -78 0
-56 -60 -75 -79 0
-56 -61 -75 -80 0
-56 -62 -75 -81 0
-56 -59 -76 -78 0
-56 -60 -76 -79 0
-56 -61 -76 -80 0
-56 -62 -76 -81 0
-56 -59 -77 -78 0
-56 -60 -77 -79 0
-56 -61 -77 -80 0
-56 -62 -77 -81 0
-57 -59 -76 -78 0
-57 -60 -76 -79 0
-57 -61 -76 -80 0
-57 -62 -76 -81 0
-57 -59 -77 -78 0
-57 -60 -77 -79 0
-57 -61 -77 -80 0
-57 -62 -77 -81 0
-58 -59 -77 -78 0
-58 -60 -77 -79 0
-58 -61 -77 -80 0
-58 -62 -77 -81 0
-64 -69 -74 -78 0
-64 -70 -74 -79 0
-64 -71 -74 -80 0
-64 -72 -74 -81 0
-64 -69 -75 -78 0
-64 -70 -75 -79 0
-64 -71 -75 -80 0
-64 -72 -75 -81 0
-65 -69 -74 -78 0
-65 -70 -74 -79 0
-65 -71 -74 -80 0
-65 -72 -74 -81 0
-65 -69 -75 -78 0
-65 -70 -75 -79 0
-65 -71 -75 -80 0
-65 -72 -75 -81 0
-65 -69 -76 -78 0
-65 -70 -76 -79 0
-65 -71 -76 -80 0
-65 -72 -76 -81 0
-66 -69 -74 -78 0
-66 -70 -74 -79 0
-66 -71 -74 -80 0
-66 -72 -74 -81 0
-66 -69 -75 -78 0
-66 -70 -75 -79 0
-66 -71 -75 -80 0
-66 -72 -75 -81 0
-66 -69 -76 -78 0
-66 -70 -76 -79 0
-66 -71 -76 -80 0
-66 -72 -76 -81 0
-66 -69 -77 -78 0
-66 -70 -77 -79 0
-66 -71 -77 -80 0
-66 -72 -77 -81 0
-67 -69 -75 -78 0
-67 -70 -75 -79 0
-67 -71 -75 -80 0
-67 -72 -75 -81 0
-67 -69 -76 -78 0
-67 -70 -76 -79 0
-67 -71 -76 -80 0
-67 -72 -76 -81 0
-67 -69 -77 -78 0
-67 -70 -77 -79 0
-67 -71 -77 -80 0
-67 -72 -77 -81 0
-68 -69 -76 -78 0
-68 -70 -76 -79 0
-68 -71 -76 -80 0
-68 -72 -76 -81 0
-68 -69 -77 -78 0
-68 -70 -77 -79 0
-68 -71 -77 -80 0
-68 -72 -77 -81 0
-83 -89 -94 -100 0
-83 -90 -94 -101 0
-83 -91 -94 -102 0
-83 -92 -94 -103 0
-84 -89 -95 -100 0
-84 -90 -95 -101 0
-84 -91 -95 -102 0
-84 -92 -95 -103 0
-85 -89 -96 -100 0
-85 -90 -96 -101 0
-85 -91 -96 -102 0
-85 -92 -96 -103 0
-86 -89 -97 -100 0
-86 -90 -97 -101 0
-86 -91 -97 -102 0
-86 -92 -97 -103 0
-87 -89 -98 -100 0
-87 -90 -98 -101 0
-87 -91 -98 -102 0
-87 -92 -98 -103 0
-88 -89 -99 -100 0
-88 -90 -99 -101 0
-88 -91 -99 -102 0
-88 -92 -99 -103 0
-83 -89 -105 -110 0
-83 -90 -105 -111 0
-83 -91 -105 -112 0
-83 -92 -105 -113 0
-84 -89 -105 -110 0
-84 -90 -105 -111 0
-84 -91 -105 -112 0
-84 -92 -105 -113 0
-84 -89 -106 -110 0
-84 -90 -106 -111 0
-84 -91 -106 -112 0
-84 -92 -106 -113 0
-85 -89 -106 -110 0
-85 -90 -106 -111 0
-85 -91 -106 -112 0
-85 -92 -106 -113 0
-85 -89 -107 -110 0
-85 -90 -107 -111 0
-85 -91 -107 -112 0
-85 -92 -107 -113 0
-86 -89 -107 -110 0
-86 -90 -107 -111 0
-86 -91 -107 -112 0
-86 -92 -107 -113 0
-86 -89 -108 -110 0
-86 -90 -108 -111 0
-86 -91 -108 -112 0
-86 -92 -108 -113 0
-87 -89 -108 -110 0
-87 -90 -108 -111 0
-87 -91 -108 -112 0
-87 -92 -108 -113 0
-87 -89 -109 -110 0
-87 -90 -109 -111 0
-87 -91 -109 -112 0
-87 -92 -109 -113 0
-88 -89 -109 -110 0
-88 -90 -109 -111 0
-88 -91 -109 -112 0
-88 -92 -109 -113 0
-83 -89 -115 -119 0
-83 -90 -115 -120 0
-83 -91 -115 -121 0
-83 -92 -115 -122 0
-84 -89 -115 -119 0
-84 -90 -115 -120 0
-84 -91 -115 -121 0
-84 -92 -115 -122 0
-84 -89 -116 -119 0
-84 -90 -116 -120 0
-84 -91 -116 -121 0
-84 -92 -116 -122 0
-85 -89 -115 -119 0
-85 -90 -115 -120 0
-85 -91 -115 -121 0
-85 -92 -115 -122 0
-85 -89 -116 -119 0
-85 -90 -116 -120 0
-85 -91 -116 -121 0
-85 -92 -116 -122 0
-85 -89 -117 -119 0
-85 -90 -117 -120 0
-85 -91 -117 -121 0
-85 -92 -117 -122 0
-86 -89 -116 -119 0
-86 -90 -116 -120 0
-86 -91 -116 -121 0
-86 -92 -116 -122 0
-86 -89 -117 -119 0
-86 -90 -117 -120 0
-86 -91 -117 -121 0
-86 -92 -117 -122 0
-86 -89 -118 -119 0
-86 -90 -118 -120 0
-86 -91 -118 -121 0
-86 -92 -118 -122 0
-87 -89 -117 -119 0
-87 -90 -117 -120 0
-87 -91 -117 -121 0
-87 -92 -117 -122 0
-87 -89 -118 -119 0
-87 -90 -118 -120 0
-87 -91 -118 -121 0
-87 -92 -118 -122 0
-88 -89 -118 -119 0
-88 -90 -118 -120 0
-88 -91 -118 -121 0
-88 -92 -118 -122 0
-94 -100 -105 -110 0
-94 -101 -105 -111 0
-94 -102 -105 -112 0
-94 -103 -105 -113 0
-95 -100 -105 -110 0
-95 -101 -105 -111 0
-95 -102 -105 -112 0
-95 -103 -105 -113 0
-95 -100 -106 -110 0
-95 -101 -106 -111 0
-95 -102 -106 -112 0
-95 -103 -106 -113 0
-96 -100 -106 -110 0
-96 -101 -106 -111 0
-96 -102 -106 -112 0
-96 -103 -106 -113 0
-96 -100 -107 -110 0
-96 -101 -107 -111 0
-96 -102 -107 -112 0
-96 -103 -107 -113 0
-97 -100 -107 -110 0
-97 -101 -107 -111 0
-97 -102 -107 -112 0
-97 -103 -107 -113 0
-97 -100 -108 -110 0
-97 -101 -108 -111 0
-97 -102 -108 -112 0
-97 -103 -108 -113 0
-98 -100 -108 -110 0
-98 -101 -108 -111 0
-98 -102 -108 -112 0
-98 -103 -108 -113 0
-98 -100 -109 -110 0
-98 -101 -109 -111 0
-98 -102 -109 -112 0
-98 -103 -109 -113 0
-99 -100 -109 -110 0
-99 -101 -109 -111 0
-99 -102 -109 -112 0
-99 -103 -109 -113 0
-94 -100 -115 -119 0
-94 -101 -115 -120 0
-94 -102 -115 -121 0
-94 -103 -115 -122 0
-95 -100 -115 -119 0
-95 -101 -115 -120 0
-95 -102 -115 -121 0
-95 -103 -115 -122 0
-95 -100 -116 -119 0
-95 -101 -116 -120 0
-95 -102 -116 -121 0
-95 -103 -116 -122 0
-96 -100 -115 -119 0
-96 -101 -115 -120 0
-96 -102 -115 -121 0
-96 -103 -115 -122 0
-96 -100 -116 -119 0
-96 -101 -116 -120 0
-96 -102 -116 -121 0
-96 -103 -116 -122 0
-96 -100 -117 -119 0
-96 -101 -117 -120 0
-96 -102 -117 -121 0
-96 -103 -117 -122 0
-97 -100 -116 -119 0
-97 -101 -116 -120 0
-97 -102 -116 -121 0
-97 -103 -116 -122 0
-97 -100 -117 -119 0
-97 -101 -117 -120 0
-97 -102 -117 -121 0
-97 -103 -117 -122 0
-97 -100 -118 -119 0
-97 -101 -118 -120 0
-97 -102 -118 -121 0
-97 -103 -118 -122 0
-98 -100 -117 -119 0
-98 -101 -117 -120 0
-98 -102 -117 -121 0
-98 -103 -117 -122 0
-98 -100 -118 -119 0
-98 -101 -118 -120 0
-98 -102 -118 -121 0
-98 -103 -118 -122 0
-99 -100 -118 -119 0
-99 -101 -118 -120 0
-99 -102 -118 -121 0
-99 -103 -118 -122 0
-105 -110 -115 -119 0
-105 -111 -115 -120 0
-105 -112 -115 -121 0
-105 -113 -115 -122 0
-105 -110 -116 -119 0
-105 -111 -116 -120 0
-105 -112 -116 -121 0
-105 -113 -116 -122 0
-106 -110 -115 -119 0
-106 -111 -115 -120 0
-106 -112 -115 -121 0
-106 -113 -115 -122 0
-106 -110 -116 -119 0
-106 -111 -116 -120 0
-106 -112 -116 -121 0
-106 -113 -116 -122 0
-106 -110 -117 -119 0
-106 -111 -117 -120 0
-106 -112 -117 -121 0
-106 -113 -117 -122 0
-107 -110 -115 -119 0
-107 -111 -115 -120 0
-107 -112 -115 -121 0
-107 -113 -115 -122 0
-107 -110 -116 -119 0
-107 -111 -116 -120 0
-107 -112 -116 -121 0
-107 -113 -116 -122 0
-107 -110 -117 -119 0
-107 -111 -117 -120 0
-107 -112 -117 -121 0
-107 -113 -117 -122 0
-107 -110 -118 -119 0
-107 -111 -118 -120 0
-107 -112 -118 -121 0
-107 -113 -118 -122 0
-108 -110 -116 -119 0
-108 -111 -116 -120 0
-108 -112 -116 -121 0
-108 -113 -116 -122 0
-108 -110 -117 -119 0
-108 -111 -117 -120 0
-108 -112 -117 -121 0
-108 -113 -117 -122 0
-108 -110 -118 -119 0
-108 -111 -118 -120 0
-108 -112 -118 -121 0
-108 -113 -118 -122 0
-109 -110 -117 -119 0
-109 -111 -117 -120 0
-109 -112 -117 -121 0
-109 -113 -117 -122 0
-109 -110 -118 -119 0
-109 -111 -118 -120 0
-109 -112 -118 -121 0
-109 -113 -118 -122 0
-124 -130 -135 -141 0
-124 -131 -135 -142 0
-124 -132 -135 -143 0
-124 -133 -135 -144 0
-125 -130 -136 -141 0
-125 -131 -136 -142 0
-125 -132 -136 -143 0
-125 -133 -136 -144 0
-126 -130 -137 -141 0
-126 -131 -137 -142 0
-126 -132 -137 -143 0
-126 -133 -137 -144 0
-127 -130 -138 -141 0
-127 -131 -138 -142 0
-127 -132 -138 -143 0
-127 -133 -138 -144 0
-128 -130 -139 -141 0
-128 -131 -139 -142 0
-128 -132 -139 -143 0
-128 -133 -139 -144 0
-129 -130 -140 -141 0
-129 -131 -140 -142 0
-129 -132 -140 -143 0
-129 -133 -140 -144 0
-124 -130 -146 -151 0
-124 -131 -146 -152 0
-124 -132 -146 -153 0
-124 -133 -146 -154 0
-125 -130 -146 -151 0
-125 -131 -146 -152 0
-125 -132 -146 -153 0
-125 -133 -146 -154 0
-125 -130 -147 -151 0
-125 -131 -147 -152 0
-125 -132 -147 -153 0
-125 -133 -147 -154 0
-126 -130 -147 -151 0
-126 -131 -147 -152 0
-126 -132 -147 -153 0
-126 -133 -147 -154 0
-126 -130 -148 -151 0
-126 -131 -148 -152 0
-126 -132 -148 -153 0
-126 -133 -148 -154 0
-127 -130 -148 -151 0
-127 -131 -148 -152 0
-127 -132 -148 -153 0
-127 -133 -148 -154 0
-127 -130 -149 -151 0
-127 -131 -149 -152 0
-127 -132 -149 -153 0
-127 -133 -149 -154 0
-128 -130 -149 -151 0
-128 -131 -149 -152 0
-128 -132 -149 -153 0
-128 -133 -149 -154 0
-128 -130 -150 -151 0
-128 -131 -150 -152 0
-128 -132 -150 -153 0
-128 -133 -150 -154 0
-129 -130 -150 -151 0
-129 -131 -150 -152 0
-129 -132 -150 -153 0
-129 -133 -150 -154 0
-124 -130 -156 -160 0
-124 -131 -156 -161 0
-124 -132 -156 -162 0
-124 -133 -156 -163 0
-125 -130 -156 -160 0
-125 -131 -156 -161 0
-125 -132 -156 -162 0
-125 -133 -156 -163 0
-125 -130 -157 -160 0
-125 -131 -157 -161 0
-125 -132 -157 -162 0
-125 -133 -157 -163 0
-126 -130 -156 -160 0
-126 -131 -156 -161 0
-126 -132 -156 -162 0
-126 -133 -156 -163 0
-126 -130 -157 -160 0
-126 -131 -157 -161 0
-126 -132 -157 -162 0
-126 -133 -157 -163 0
-126 -130 -158 -160 0
-126 -131 -158 -161 0
-126 -132 -158 -162 0
-126 -133 -158 -163 0
-127 -130 -157 -160 0
-127 -131 -157 -161 0
-127 -132 -157 -162 0
-127 -133 -157 -163 0
-127 -130 -158 -160 0
-127 -131 -158 -161 0
-127 -132 -158 -162 0
-127 -133 -158 -163 0
-127 -130 -159 -160 0
-127 -131 -159 -161 0
-127 -132 -159 -162 0
-127 -133 -159 -163 0
-128 -130 -158 -160 0
-128 -131 -158 -161 0
-128 -132 -158 -162 0
-128 -133 -158 -163 0
-128 -130 -159 -160 0
-128 -131 -159 -161 0
-128 -132 -159 -162 0
-128 -133 -159 -163 0
-129 -130 -159 -160 0
-129 -131 -159 -161 0
-129 -132 -159 -162 0
-129 -133 -159 -163 0
-135 -141 -146 -151 0
-135 -142 -146 -152 0
-135 -143 -146 -153 0
-135 -144 -146 -154 0
-136 -141 -146 -151 0
-136 -142 -146 -152 0
-136 -143 -146 -153 0
-136 -144 -146 -154 0
-136 -141 -147 -151 0
-136 -142 -147 -152 0
-136 -143 -147 -153 0
-136 -144 -147 -154 0
-137 -141 -147 -151 0
-137 -142 -147 -152 0
-137 -143 -147 -153 0
-137 -144 -147 -154 0
-137 -141 -148 -151 0
-137 -142 -148 -152 0
-137 -143 -148 -153 0
-137 -144 -148 -154 0
-138 -141 -148 -151 0
-138 -142 -148 -152 0
-138 -143 -148 -153 0
-138 -144 -148 -154 0
-138 -141 -149 -151 0
-138 -142 -149 -152 0
-138 -143 -149 -153 0
-138 -144 -149 -154 0
-139 -141 -149 -151 0
-139 -142 -149 -152 0
-139 -143 -149 -153 0
-139 -144 -149 -154 0
-139 -141 -150 -151 0
-139 -142 -150 -152 0
-139 -143 -150 -153 0
-139 -144 -150 -154 0
-140 -141 -150 -151 0
-140 -142 -150 -152 0
-140 -143 -150 -153 0
-140 -144 -150 -154 0
-135 -141 -156 -160 0
-135 -142 -156 -161 0
-135 -143 -156 -162 0
-135 -144 -156 -163 0
-136 -141 -156 -160 0
-136 -142 -156 -161 0
-136 -143 -156 -162 0
-136 -144 -156 -163 0
-136 -141 -157 -160 0
-136 -142 -157 -161 0
-136 -143 -157 -162 0
-136 -144 -157 -163 0
-137 -141 -156 -160 0
-137 -142 -156 -161 0
-137 -143 -156 -162 0
-137 -144 -156 -163 0
-137 -141 -157 -160 0
-137 -142 -157 -161 0
-137 -143 -157 -162 0
-137 -144 -157 -163 0
-137 -141 -158 -160 0
-137 -142 -158 -161 0
-137 -143 -158 -162 0
-137 -144 -158 -163 0
-138 -141 -157 -160 0
-138 -142 -157 -161 0
-138 -143 -157 -162 0
-138 -144 -157 -163 0
-138 -141 -158 -160 0
-138 -142 -158 -161 0
-138 -143 -158 -162 0
-138 -144 -158 -163 0
-138 -141 -159 -160 0
-138 -142 -159 -161 0
-138 -143 -159 -162 0
-138 -144 -159 -163 0
-139 -141 -158 -160 0
-139 -142 -158 -161 0
-139 -143 -158 -162 0
-139 -144 -158 -163 0
-139 -141 -159 -160 0
-139 -142 -159 -161 0
-139 -143 -159 -162 0
-139 -144 -159 -163 0
-140 -141 -159 -160 0
-140 -142 -159 -161 0
-140 -143 -159 -162 0
-140 -144 -159 -163 0
-146 -151 -156 -160 0
-146 -152 -156 -161 0
-146 -153 -156 -162 0
-146 -154 -156 -163 0
-146 -151 -157 -160 0
-146 -152 -157 -161 0
-146 -153 -157 -162 0
-146 -154 -157 -163 0
-147 -151 -156 -160 0
-147 -152 -156 -161 0
-147 -153 -156 -162 0
-147 -154 -156 -163 0
-147 -151 -157 -160 0
-147 -152 -157 -161 0
-147 -153 -157 -162 0
-147 -154 -157 -163 0
-147 -151 -158 -160 0
-147 -152 -158 -161 0
-147 -153 -158 -162 0
-147 -154 -158 -163 0
-148 -151 -156 -160 0
-148 -152 -156 -161 0
-148 -153 -156 -162 0
-148 -154 -156 -163 0
-148 -151 -157 -160 0
-148 -152 -157 -161 0
-148 -153 -157 -162 0
-148 -154 -157 -163 0
-148 -151 -158 -160 0
-148 -152 -158 -161 0
-148 -153 -158 -162 0
-148 -154 -158 -163 0
-148 -151 -159 -160 0
-148 -152 -159 -161 0
-148 -153 -159 -162 0
-148 -154 -159 -163 0
-149 -151 -157 -160 0
-149 -152 -157 -161 0
-149 -153 -157 -162 0
-149 -154 -157 -163 0
-149 -151 -158 -160 0
-149 -152 -158 -161 0
-149 -153 -158 -162 0
-149 -154 -158 -163 0
-149 -151 -159 -160 0
-149 -152 -159 -161 0
-149 -153 -159 -162 0
-149 -154 -159 -163 0
-150 -151 -158 -160 0
-150 -152 -158 -161 0
-150 -153 -158 -162 0
-150 -154 -158 -163 0
-150 -151 -159 -160 0
-150 -152 -159 -161 0
-150 -153 -159 -162 0
-150 -154 -159 -163 0
-165 -171 -176 -182 0
-165 -172 -176 -183 0
-165 -173 -176 -184 0
-165 -174 -176 -185 0
-166 -171 -177 -182 0
-166 -172 -177 -183 0
-166 -173 -177 -184 0
-166 -174 -177 -185 0
-167 -171 -178 -182 0
-167 -172 -178 -183 0
-167 -173 -178 -184 0
-167 -174 -178 -185 0
-168 -171 -179 -182 0
-168 -172 -179 -183 0
-168 -173 -179 -184 0
-168 -174 -179 -185 0
-169 -171 -180 -182 0
-169 -172 -180 -183 0
-169 -173 -180 -184 0
-169 -174 -180 -185 0
-170 -171 -181 -182 0
-170 -172 -181 -183 0
-170 -173 -181 -184 0
-170 -174 -181 -185 0
-165 -171 -187 -192 0
-165 -172 -187 -193 0
-165 -173 -187 -194 0
-165 -174 -187 -195 0
-166 -171 -187 -192 0
-166 -172 -187 -193 0
-166 -173 -187 -194 0
-166 -174 -187 -195 0
-166 -171 -188 -192 0
-166 -172 -188 -193 0
-166 -173 -188 -194 0
-166 -174 -188 -195 0
-167 -171 -188 -192 0
-167 -172 -188 -193 0
-167 -173 -188 -194 0
-167 -174 -188 -195 0
-167 -171 -189 -192 0
-167 -172 -189 -193 0
-167 -173 -189 -194 0
-167 -174 -189 -195 0
-168 -171 -189 -192 0
-168 -172 -189 -193 0
-168 -173 -189 -194 0
-168 -174 -189 -195 0
-168 -171 -190 -192 0
-168 -172 -190 -193 0
-168 -173 -190 -194 0
-168 -174 -190 -195 0
-169 -171 -190 -192 0
-169 -172 -190 -193 0
-169 -173 -190 -194 0
-169 -174 -190 -195 0
-169 -171 -191 -192 0
-169 -172 -191 -193 0
-169 -173 -191 -194 0
-169 -174 -191 -195 0
-170 -171 -191 -192 0
-170 -172 -191 -193 0
-170 -173 -191 -194 0
-170 -174 -191 -195 0
-165 -171 -197 -201 0
-165 -172 -197 -202 0
-165 -173 -197 -203 0
-165 -174 -197 -204 0
-166 -171 -197 -201 0
-166 -172 -197 -202 0
-166 -173 -197 -203 0
-166 -174 -197 -204 0
-166 -171 -198 -201 0
-166 -172 -198 -202 0
-166 -173 -198 -203 0
-166 -174 -198 -204 0
-167 -171 -197 -201 0
-167 -172 -197 -202 0
-167 -173 -197 -203 0
-167 -174 -197 -204 0
-167 -171 -198 -201 0
-167 -172 -198 -202 0
-167 -173 -198 -203 0
-167 -174 -198 -204 0
-167 -171 -199 -201 0
-167 -172 -199 -202 0
-167 -173 -199 -203 0
-167 -174 -199 -204 0
-168 -171 -198 -201 0
-168 -172 -198 -202 0
-168 -173 -198 -203 0
-168 -174 -198 -204 0
-168 -171 -199 -201 0
-168 -172 -199 -202 0
-168 -173 -199 -203 0
-168 -174 -199 -204 0
-168 -171 -200 -201 0
-168 -172 -200 -202 0
-168 -173 -200 -203 0
-168 -174 -200 -204 0
-169 -171 -199 -201 0
-169 -172 -199 -202 0
-169 -173 -199 -203 0
-169 -174 -199 -204 0
-169 -171 -200 -201 0
-169 -172 -200 -202 0
-169 -173 -200 -203 0
-169 -174 -200 -204 0
-170 -171 -200 -201 0
-170 -172 -200 -202 0
-170 -173 -200 -203 0
-170 -174 -200 -204 0
-176 -182 -187 -192 0
-176 -183 -187 -193 0
-176 -184 -187 -194 0
-176 -185 -187 -195 0
-177 -182 -187 -192 0
-177 -183 -187 -193 0
-177 -184 -187 -194 0
-177 -185 -187 -195 0
-177 -182 -188 -192 0
-177 -183 -188 -193 0
-177 -184 -188 -194 0
-177 -185 -188 -195 0
-178 -182 -188 -192 0
-178 -183 -188 -193 0
-178 -184 -188 -194 0
-178 -185 -188 -195 0
-178 -182 -189 -192 0
-178 -183 -189 -193 0
-178 -184 -189 -194 0
-178 -185 -189 -195 0
-179 -182 -189 -192 0
-179 -183 -189 -193 0
-179 -184 -189 -194 0
-179 -185 -189 -195 0
-179 -182 -190 -192 0
-179 -183 -190 -193 0
-179 -184 -190 -194 0
-179 -185 -190 -195 0
-180 -182 -190 -192 0
-180 -183 -190 -193 0
-180 -184 -190 -194 0
-180 -185 -190 -195 0
-180 -182 -191 -192 0
-180 -183 -191 -193 0
-180 -184 -191 -194 0
-180 -185 -191 -195 0
-181 -182 -191 -192 0
-181 -183 -191 -193 0
-181 -184 -191 -194 0
-181 -185 -191 -195 0
-176 -182 -197 -201 0
-176 -183 -197 -202 0
-176 -184 -197 -203 0
-176 -185 -197 -204 0
-177 -182 -197 -201 0
-177 -183 -197 -202 0
-177 -184 -197 -203 0
-177 -185 -197 -204 0
-177 -182 -198 -201 0
-177 -183 -198 -202 0
-177 -184 -198 -203 0
-177 -185 -198 -204 0
-178 -182 -197 -201 0
-178 -183 -197 -202 0
-178 -184 -197 -203 0
-178 -185 -197 -204 0
-178 -182 -198 -201 0
-178 -183 -198 -202 0
-178 -184 -198 -203 0
-178 -185 -198 -204 0
-178 -182 -199 -201 0
-178 -183 -199 -202 0
-178 -184 -199 -203 0
-178 -185 -199 -204 0
-179 -182 -198 -201 0
-179 -183 -198 -202 0
-179 -184 -198 -203 0
-179 -185 -198 -204 0
-179 -182 -199 -201 0
-179 -183 -199 -202 0
-179 -184 -199 -203 0
-179 -185 -199 -204 0
-179 -182 -200 -201 0
-179 -183 -200 -202 0
-179 -184 -200 -203 0
-179 -185 -200 -204 0
-180 -182 -199 -201 0
-180 -183 -199 -202 0
-180 -184 -199 -203 0
-180 -185 -199 -204 0
-180 -182 -200 -201 0
-180 -183 -200 -202 0
-180 -184 -200 -203 0
-180 -185 -200 -204 0
-181 -182 -200 -201 0
-181 -183 -200 -202 0
-181 -184 -200 -203 0
-181 -185 -200 -204 0
-187 -192 -197 -201 0
-187 -193 -197 -202 0
-187 -194 -197 -203 0
-187 -195 -197 -204 0
-187 -192 -198 -201 0
-187 -193 -198 -202 0
-187 -194 -198 -203 0
-187 -195 -198 -204 0
-188 -192 -197 -201 0
-188 -193 -197 -202 0
-188 -194 -197 -203 0
-188 -195 -197 -204 0
-188 -192 -198 -201 0
-188 -193 -198 -202 0
-188 -194 -198 -203 0
-188 -195 -198 -204 0
-188 -192 -199 -201 0
-188 -193 -199 -202 0
-188 -194 -199 -203 0
-188 -195 -199 -204 0
-189 -192 -197 -201 0
-189 -193 -197 -202 0
-189 -194 -197 -203 0
-189 -195 -197 -204 0
-189 -192 -198 -201 0
-189 -193 -198 -202 0
-189 -194 -198 -203 0
-189 -195 -198 -204 0
-189 -192 -199 -201 0
-189 -193 -199 -202 0
-189 -194 -199 -203 0
-189 -195 -199 -204 0
-189 -192 -200 -201 0
-189 -193 -200 -202 0
-189 -194 -200 -203 0
-189 -195 -200 -204 0
-190 -192 -198 -201 0
-190 -193 -198 -202 0
-190 -194 -198 -203 0
-190 -195 -198 -204 0
-190 -192 -199 -201 0
-190 -193 -199 -202 0
-190 -194 -199 -203 0
-190 -195 -199 -204 0
-190 -192 -200 -201 0
-190 -193 -200 -202 0
-190 -194 -200 -203 0
-190 -195 -200 -204 0
-191 -192 -199 -201 0
-191 -193 -199 -202 0
-191 -194 -199 -203 0
-191 -195 -199 -204 0
-191 -192 -200 -201 0
-191 -193 -200 -202 0
-191 -194 -200 -203 0
-191 -195 -200 -204 0
-206 -212 -217 -223 0
-206 -213 -217 -224 0
-206 -214 -217 -225 0
-206 -215 -217 -226 0
-207 -212 -218 -223 0
-207 -213 -218 -224 0
-207 -214 -218 -225 0
-207 -215 -218 -226 0
-208 -212 -219 -223 0
-208 -213 -219 -224 0
-208 -214 -219 -225 0
-208 -215 -219 -226 0
-209 -212 -220 -223 0
-209 -213 -220 -224 0
-209 -214 -220 -225 0
-209 -215 -220 -226 0
-210 -212 -221 -223 0
-210 -213 -221 -224 0
-210 -214 -221 -225 0
-210 -215 -221 -226 0
-211 -212 -222 -223 0
-211 -213 -222 -224 0
-211 -214 -222 -225 0
-211 -215 -222 -226 0
-206 -212 -228 -233 0
-206 -213 -228 -234 0
-206 -214 -228 -235 0
-206 -215 -228 -236 0
-207 -212 -228 -233 0
-207 -213 -228 -234 0
-207 -214 -228 -235 0
-207 -215 -228 -236 0
-207 -212 -229 -233 0
-207 -213 -229 -234 0
-207 -214 -229 -235 0
-207 -215 -229 -236 0
-208 -212 -229 -233 0
-208 -213 -229 -234 0
-208 -214 -229 -235 0
-208 -215 -229 -236 0
-208 -212 -230 -233 0
-208 -213 -230 -234 0
-208 -214 -230 -235 0
-208 -215 -230 -236 0
-209 -212 -230 -233 0
-209 -213 -230 -234 0
-209 -214 -230 -235 0
-209 -215 -230 -236 0
-209 -212 -231 -233 0
-209 -213 -231 -234 0
-209 -214 -231 -235 0
-209 -215 -231 -236 0
-210 -212 -231 -233 0
-210 -213 -231 -234 0
-210 -214 -231 -235 0
-210 -215 -231 -236 0
-210 -212 -232 -233 0
-210 -213 -232 -234 0
-210 -214 -232 -235 0
-210 -215 -232 -236 0
-211 -212 -232 -233 0
-211 -213 -232 -234 0
-211 -214 -232 -235 0
-211 -215 -232 -236 0
-206 -212 -238 -242 0
-206 -213 -238 -243 0
-206 -214 -238 -244 0
-206 -215 -238 -245 0
-207 -212 -238 -242 0
-207 -213 -238 -243 0
-207 -214 -238 -244 0
-207 -215 -238 -245 0
-207 -212 -239 -242 0
-207 -213 -239 -243 0
-207 -214 -239 -244 0
-207 -215 -239 -245 0
-208 -212 -238 -242 0
-208 -213 -238 -243 0
-208 -214 -238 -244 0
-208 -215 -238 -245 0
-208 -212 -239 -242 0
-208 -213 -239 -243 0
-208 -214 -239 -244 0
-208 -215 -239 -245 0
-208 -212 -240 -242 0
-208 -213 -240 -243 0
-208 -214 -240 -244 0
-208 -215 -240 -245 0
-209 -212 -239 -242 0
-209 -213 -239 -243 0
-209 -214 -239 -244 0
-209 -215 -239 -245 0
-209 -212 -240 -242 0
-209 -213 -240 -243 0
-209 -214 -240 -244 0
-209 -215 -240 -245 0
-209 -212 -241 -242 0
-209 -213 -241 -243 0
-209 -214 -241 -244 0
-209 -215 -241 -245 0
-210 -212 -240 -242 0
-210 -213 -240 -243 0
-210 -214 -240 -244 0
-210 -215 -240 -245 0
-210 -212 -241 -242 0
-210 -213 -241 -243 0
-210 -214 -241 -244 0
-210 -215 -241 -245 0
-211 -212 -241 -242 0
-211 -213 -241 -243 0
-211 -214 -241 -244 0
-211 -215 -241 -245 0
-217 -223 -228 -233 0
-217 -224 -228 -234 0
-217 -225 -228 -235 0
-217 -226 -228 -236 0
-218 -223 -228 -233 0
-218 -224 -228 -234 0
-218 -225 -228 -235 0
-218 -226 -228 -236 0
-218 -223 -229 -233 0
-218 -224 -229 -234 0
-218 -225 -229 -235 0
-218 -226 -229 -236 0
-219 -223 -229 -233 0
-219 -224 -229 -234 0
-219 -225 -229 -235 0
-219 -226 -229 -236 0
-219 -223 -230 -233 0
-219 -224 -230 -234 0
-219 -225 -230 -235 0
-219 -226 -230 -236 0
-220 -223 -230 -233 0
-220 -224 -230 -234 0
-220 -225 -230 -235 0
-220 -226 -230 -236 0
-220 -223 -231 -233 0
-220 -224 -231 -234 0
-220 -225 -231 -235 0
-220 -226 -231 -236 0
-221 -223 -231 -233 0
-221 -224 -231 -234 0
-221 -225 -231 -235 0
-221 -226 -231 -236 0
-221 -223 -232 -233 0
-221 -224 -232 -234 0
-221 -225 -232 -235 0
-221 -226 -232 -236 0
-222 -223 -232 -233 0
-222 -224 -232 -234 0
-222 -225 -232 -235 0
-222 -226 -232 -236 0
-217 -223 -238 -242 0
-217 -224 -238 -243 0
-217 -225 -238 -244 0
-217 -226 -238 -245 0
-218 -223 -238 -242 0
-218 -224 -238 -243 0
-218 -225 -238 -244 0
-218 -226 -238 -245 0
-218 -223 -239 -242 0
-218 -224 -239 -243 0
-218 -225 -239 -244 0
-218 -226 -239 -245 0
-219 -223 -238 -242 0
-219 -224 -238 -243 0
-219 -225 -238 -244 0
-219 -226 -238 -245 0
-219 -223 -239 -242 0
-219 -224 -239 -243 0
-219 -225 -239 -244 0
-219 -226 -239 -245 0
-219 -223 -240 -242 0
-219 -224 -240 -243 0
-219 -225 -240 -244 0
-219 -226 -240 -245 0
-220 -223 -239 -242 0
-220 -224 -239 -243 0
-220 -225 -239 -244 0
-220 -226 -239 -245 0
-220 -223 -240 -242 0
-220 -224 -240 -243 0
-220 -225 -240 -244 0
-220 -226 -240 -245 0
-220 -223 -241 -242 0
-220 -224 -241 -243 0
-220 -225 -241 -244 0
-220 -226 -241 -245 0
-221 -223 -240 -242 0
-221 -224 -240 -243 0
-221 -225 -240 -244 0
-221 -226 -240 -245 0
-221 -223 -241 -242 0
-221 -224 -241 -243 0
-221 -225 -241 -244 0
-221 -226 -241 -245 0
-222 -223 -241 -242 0
-222 -224 -241 -243 0
-222 -225 -241 -244 0
-222 -226 -241 -245 0
-228 -233 -238 -242 0
-228 -234 -238 -243 0
-228 -235 -238 -244 0
-228 -236 -238 -245 0
-228 -233 -239 -242 0
-228 -234 -239 -243 0
-228 -235 -239 -244 0
-228 -236 -239 -245 0
-229 -233 -238 -242 0
-229 -234 -238 -243 0
-229 -235 -238 -244 0
-229 -236 -238 -245 0
-229 -233 -239 -242 0
-229 -234 -239 -243 0
-229 -235 -239 -244 0
-229 -236 -239 -245 0
-229 -233 -240 -242 0
-229 -234 -240 -243 0
-229 -235 -240 -244 0
-229 -236 -240 -245 0
-230 -233 -238 -242 0
-230 -234 -238 -243 0
-230 -235 -238 -244 0
-230 -236 -238 -245 0
-230 -233 -239 -242 0
-230 -234 -239 -243 0
-230 -235 -239 -244 0
-230 -236 -239 -245 0
-230 -233 -240 -242 0
-230 -234 -240 -243 0
-230 -235 -240 -244 0
-230 -236 -240 -245 0
-230 -233 -241 -242 0
-230 -234 -241 -243 0
-230 -235 -241 -244 0
-230 -236 -241 -245 0
-231 -233 -239 -242 0
-231 -234 -239 -243 0
-231 -235 -239 -244 0
-231 -236 -239 -245 0
-231 -233 -240 -242 0
-231 -234 -240 -243 0
-231 -235 -240 -244 0
-231 -236 -240 -245 0
-231 -233 -241 -242 0
-231 -234 -241 -243 0
-231 -235 -241 -244 0
-231 -236 -241 -245 0
-232 -233 -240 -242 0
-232 -234 -240 -243 0
-232 -235 -240 -244 0
-232 -236 -240 -245 0
-232 -233 -241 -242 0
-232 -234 -241 -243 0
-232 -235 -241 -244 0
-232 -236 -241 -245 0
-1 -8 667 0
-1 -9 672 0
-1 -10 677 0
-2 -8 687 0
-2 -9 692 0
-2 -10 697 0
-3 -8 707 0
-3 -9 712 0
-3 -10 717 0
-4 -8 727 0
-4 -9 732 0
-4 -10 737 0
-5 -8 747 0
-5 -9 752 0
-5 -10 757 0
-6 -8 767 0
-6 -9 772 0
-6 -10 777 0
-12 -19 667 0
-12 -20 672 0
-12 -21 677 0
-13 -19 687 0
-13 -20 692 0
-13 -21 697 0
-14 -19 707 0
-14 -20 712 0
-14 -21 717 0
-15 -19 727 0
-15 -20 732 0
-15 -21 737 0
-16 -19 747 0
-16 -20 752 0
-16 -21 757 0
-17 -19 767 0
-17 -20 772 0
-17 -21 777 0
-23 -29 667 687 0
-23 -30 672 692 0
-23 -31 677 697 0
-24 -29 687 707 0
-24 -30 692 712 0
-24 -31 697 717 0
-25 -29 707 727 0
-25 -30 712 732 0
-25 -31 717 737 0
-26 -29 727 747 0
-26 -30 732 752 0
-26 -31 737 757 0
-27 -29 747 767 0
-27 -30 752 772 0
-27 -31 757 777 0
-33 -38 667 687 0
-33 -38 667 707 0
-33 -38 687 707 0
-33 -39 672 692 0
-33 -39 672 712 0
-33 -39 692 712 0
-33 -40 677 697 0
-33 -40 677 717 0
-33 -40 697 717 0
-34 -38 687 707 0
-34 -38 687 727 0
-34 -38 707 727 0
-34 -39 692 712 0
-34 -39 692 732 0
-34 -39 712 732 0
-34 -40 697 717 0
-34 -40 697 737 0
-34 -40 717 737 0
-35 -38 707 727 0
-35 -38 707 747 0
-35 -38 727 747 0
-35 -39 712 732 0
-35 -39 712 752 0
-35 -39 732 752 0
-35 -40 717 737 0
-35 -40 717 757 0
-35 -40 737 757 0
-36 -38 727 747 0
-36 -38 727 767 0
-36 -38 747 767 0
-36 -39 732 752 0
-36 -39 732 772 0
-36 -39 752 772 0
-36 -40 737 757 0
-36 -40 737 777 0
-36 -40 757 777 0
-42 -49 787 0
-42 -50 792 0
-42 -51 797 0
-43 -49 807 0
-43 -50 812 0
-43 -51 817 0
-44 -49 827 0
-44 -50 832 0
-44 -51 837 0
-45 -49 847 0
-45 -50 852 0
-45 -51 857 0
-46 -49 867 0
-46 -50 872 0
-46 -51 877 0
-47 -49 887 0
-47 -50 892 0
-47 -51 897 0
-53 -60 787 0
-53 -61 792 0
-53 -62 797 0
-54 -60 807 0
-54 -61 812 0
-54 -62 817 0
-55 -60 827 0
-55 -61 832 0
-55 -62 837 0
-56 -60 847 0
-56 -61 852 0
-56 -62 857 0
-57 -60 867 0
-57 -61 872 0
-57 -62 877 0
-58 -60 887 0
-58 -61 892 0
-58 -62 897 0
-64 -70 787 807 0
-64 -71 792 812 0
-64 -72 797 817 0
-65 -70 807 827 0
-65 -71 812 832 0
-65 -72 817 837 0
-66 -70 827 847 0
-66 -71 832 852 0
-66 -72 837 857 0
-67 -70 847 867 0
-67 -71 852 872 0
-67 -72 857 877 0
-68 -70 867 887 0
-68 -71 872 892 0
-68 -72 877 897 0
-74 -79 787 807 0
-74 -79 787 827 0
-74 -79 807 827 0
-74 -80 792 812 0
-74 -80 792 832 0
-74 -80 812 832 0
-74 -81 797 817 0
-74 -81 797 837 0
-74 -81 817 837 0
-75 -79 807 827 0
-75 -79 807 847 0
-75 -79 827 847 0
-75 -80 812 832 0
-75 -80 812 852 0
-75 -80 832 852 0
-75 -81 817 837 0
-75 -81 817 857 0
-75 -81 837 857 0
-76 -79 827 847 0
-76 -79 827 867 0
-76 -79 847 867 0
-76 -80 832 852 0
-76 -80 832 872 0
-76 -80 852 872 0
-76 -81 837 857 0
-76 -81 837 877 0
-76 -81 857 877 0
-77 -79 847 867 0
-77 -79 847 887 0
-77 -79 867 887 0
-77 -80 852 872 0
-77 -80 852 892 0
-77 -80 872 892 0
-77 -81 857 877 0
-77 -81 857 897 0
-77 -81 877 897 0
-83 -90 907 0
-83 -91 912 0
-83 -92 917 0
-84 -90 927 0
-84 -91 932 0
-84 -92 937 0
-85 -90 947 0
-85 -91 952 0
-85 -92 957 0
-86 -90 967 0
-86 -91 972 0
-86 -92 977 0
-87 -90 987 0
-87 -91 992 0
-87 -92 997 0
-88 -90 1007 0
-88 -91 1012 0
-88 -92 1017 0
-94 -101 907 0
-94 -102 912 0
-94 -103 917 0
-95 -101 927 0
-95 -102 932 0
-95 -103 937 0
-96 -101 947 0
-96 -102 952 0
-96 -103 957 0
-97 -101 967 0
-97 -102 972 0
-97 -103 977 0
-98 -101 987 0
-98 -102 992 0
-98 -103 997 0
-99 -101 1007 0
-99 -102 1012 0
-99 -103 1017 0
-105 -111 907 927 0
-105 -112 912 932 0
-105 -113 917 937 0
-106 -111 927 947 0
-106 -112 932 952 0
-106 -113 937 957 0
-107 -111 947 967 0
-107 -112 952 972 0
-107 -113 957 977 0
-108 -111 967 987 0
-108 -112 972 992 0
-108 -113 977 997 0
-109 -111 987 1007 0
-109 -112 992 1012 0
-109 -113 997 1017 0
-115 -120 907 927 0
-115 -120 907 947 0
-115 -120 927 947 0
-115 -121 912 932 0
-115 -121 912 952 0
-115 -121 932 952 0
-115 -122 917 937 0
-115 -122 917 957 0
-115 -122 937 957 0
-116 -120 927 947 0
-116 -120 927 967 0
-116 -120 947 967 0
-116 -121 932 952 0
-116 -121 932 972 0
-116 -121 952 972 0
-116 -122 937 957 0
-116 -122 937 977 0
-116 -122 957 977 0
-117 -120 947 967 0
-117 -120 947 987 0
-117 -120 967 987 0
-117 -121 952 972 0
-117 -121 952 992 0
-117 -121 972 992 0
-117 -122 957 977 0
-117 -122 957 997 0
-117 -122 977 997 0
-118 -120 967 987 0
-118 -120 967 1007 0
-118 -120 987 1007 0
-118 -121 972 992 0
-118 -121 972 1012 0
-118 -121 992 1012 0
-118 -122 977 997 0
-118 -122 977 1017 0
-118 -122 997 1017 0
-124 -131 1027 0
-124 -132 1032 0
-124 -133 1037 0
-125 -131 1047 0
-125 -132 1052 0
-125 -133 1057 0
-126 -131 1067 0
-126 -132 1072 0
-126 -133 1077 0
-127 -131 1087 0
-127 -132 1092 0
-127 -133 1097 0
-128 -131 1107 0
-128 -132 1112 0
-128 -133 1117 0
-129 -131 1127 0
-129 -132 1132 0
-129 -133 1137 0
-135 -142 1027 0
-135 -143 1032 0
-135 -144 1037 0
-136 -142 1047 0
-136 -143 1052 0
-136 -144 1057 0
-137 -142 1067 0
-137 -143 1072 0
-137 -144 1077 0
-138 -142 1087 0
-138 -143 1092 0
-138 -144 1097 0
-139 -142 1107 0
-139 -143 1112 0
-139 -144 1117 0
-140 -142 1127 0
-140 -143 1132 0
-140 -144 1137 0
-146 -152 1027 1047 0
-146 -153 1032 1052 0
-146 -154 1037 1057 0
-147 -152 1047 1067 0
-147 -153 1052 1072 0
-147 -154 1057 1077 0
-148 -152 1067 1087 0
-148 -153 1072 1092 0
-148 -154 1077 1097 0
-149 -152 1087 1107 0
-149 -153 1092 1112 0
-149 -154 1097 1117 0
-150 -152 1107 1127 0
-150 -153 1112 1132 0
-150 -154 1117 1137 0
-156 -161 1027 1047 0
-156 -161 1027 1067 0
-156 -161 1047 1067 0
-156 -162 1032 1052 0
-156 -162 1032 1072 0
-156 -162 1052 1072 0
-156 -163 1037 1057 0
-156 -163 1037 1077 0
-156 -163 1057 1077 0
-157 -161 1047 1067 0
-157 -161 1047 1087 0
-157 -161 1067 1087 0
-157 -162 1052 1072 0
-157 -162 1052 1092 0
-157 -162 1072 1092 0
-157 -163 1057 1077 0
-157 -163 1057 1097 0
-157 -163 1077 1097 0
-158 -161 1067 1087 0
-158 -161 1067 1107 0
-158 -161 1087 1107 0
-158 -162 1072 1092 0
-158 -162 1072 1112 0
-158 -162 1092 1112 0
-158 -163 1077 1097 0
-158 -163 1077 1117 0
-158 -163 1097 1117 0
-159 -161 1087 1107 0
-159 -161 1087 1127 0
-159 -161 1107 1127 0
-159 -162 1092 1112 0
-159 -162 1092 1132 0
-159 -162 1112 1132 0
-159 -163 1097 1117 0
-159 -163 1097 1137 0
-159 -163 1117 1137 0
-165 -172 1147 0
-165 -173 1152 0
-165 -174 1157 0
-166 -172 1167 0
-166 -173 1172 0
-166 -174 1177 0
-167 -172 1187 0
-167 -173 1192 0
-167 -174 1197 0
-168 -172 1207 0
-168 -173 1212 0
-168 -174 1217 0
-169 -172 1227 0
-169 -173 1232 0
-169 -174 1237 0
-170 -172 1247 0
-170 -173 1252 0
-170 -174 1257 0
-176 -183 1147 0
-176 -184 1152 0
-176 -185 1157 0
-177 -183 1167 0
-177 -184 1172 0
-177 -185 1177 0
-178 -183 1187 0
-178 -184 1192 0
-178 -185 1197 0
-179 -183 1207 0
-179 -184 1212 0
-179 -185 1217 0
-180 -183 1227 0
-180 -184 1232 0
-180 -185 1237 0
-181 -183 1247 0
-181 -184 1252 0
-181 -185 1257 0
-187 -193 1147 1167 0
-187 -194 1152 1172 0
-187 -195 1157 1177 0
-188 -193 1167 1187 0
-188 -194 1172 1192 0
-188 -195 1177 1197 0
-189 -193 1187 1207 0
-189 -194 1192 1212 0
-189 -195 1197 1217 0
-190 -193 1207 1227 0
-190 -194 1212 1232 0
-190 -195 1217 1237 0
-191 -193 1227 1247 0
-191 -194 1232 1252 0
-191 -195 1237 1257 0
-197 -202 1147 1167 0
-197 -202 1147 1187 0
-197 -202 1167 1187 0
-197 -203 1152 1172 0
-197 -203 1152 1192 0
-197 -203 1172 1192 0
-197 -204 1157 1177 0
-197 -204 1157 1197 0
-197 -204 1177 1197 0
-198 -202 1167 1187 0
-198 -202 1167 1207 0
-198 -202 1187 1207 0
-198 -203 1172 1192 0
-198 -203 1172 1212 0
-198 -203 1192 1212 0
-198 -204 1177 1197 0
-198 -204 1177 1217 0
-198 -204 1197 1217 0
-199 -202 1187 1207 0
-199 -202 1187 1227 0
-199 -202 1207 1227 0
-199 -203 1192 1212 0
-199 -203 1192 1232 0
-199 -203 1212 1232 0
-199 -204 1197 1217 0
-199 -204 1197 1237 0
-199 -204 1217 1237 0
-200 -202 1207 1227 0
-200 -202 1207 1247 0
-200 -202 1227 1247 0
-200 -203 1212 1232 0
-200 -203 1212 1252 0
-200 -203 1232 1252 0
-200 -204 1217 1237 0
-200 -204 1217 1257 0
-200 -204 1237 1257 0
-206 -213 1267 0
-206 -214 1272 0
-206 -215 1277 0
-207 -213 1287 0
-207 -214 1292 0
-207 -215 1297 0
-208 -213 1307 0
-208 -214 1312 0
-208 -215 1317 0
-209 -213 1327 0
-209 -214 1332 0
-209 -215 1337 0
-210 -213 1347 0
-210 -214 1352 0
-210 -215 1357 0
-211 -213 1367 0
-211 -214 1372 0
-211 -215 1377 0
-217 -224 1267 0
-217 -225 1272 0
-217 -226 1277 0
-218 -224 1287 0
-218 -225 1292 0
-218 -226 1297 0
-219 -224 1307 0
-219 -225 1312 0
-219 -226 1317 0
-220 -224 1327 0
-220 -225 1332 0
-220 -226 1337 0
-221 -224 1347 0
-221 -225 1352 0
-221 -226 1357 0
-222 -224 1367 0
-222 -225 1372 0
-222 -226 1377 0
-228 -234 1267 1287 0
-228 -235 1272 1292 0
-228 -236 1277 1297 0
-229 -234 1287 1307 0
-229 -235 1292 1312 0
-229 -236 1297 1317 0
-230 -234 1307 1327 0
-230 -235 1312 1332 0
-230 -236 1317 1337 0
-231 -234 1327 1347 0
-231 -235 1332 1352 0
-231 -236 1337 1357 0
-232 -234 1347 1367 0
-232 -235 1352 1372 0
-232 -236 1357 1377 0
-238 -243 1267 1287 0
-238 -243 1267 1307 0
-238 -243 1287 1307 0
-238 -244 1272 1292 0
-238 -244 1272 1312 0
-238 -244 1292 1312 0
-238 -245 1277 1297 0
-238 -245 1277 1317 0
-238 -245 1297 1317 0
-239 -243 1287 1307 0
-239 -243 1287 1327 0
-239 -243 1307 1327 0
-239 -244 1292 1312 0
-239 -244 1292 1332 0
-239 -244 1312 1332 0
-239 -245 1297 1317 0
-239 -245 1297 1337 0
-239 -245 1317 1337 0
-240 -243 1307 1327 0
-240 -243 1307 1347 0
-240 -243 1327 1347 0
-240 -244 1312 1332 0
-240 -244 1312 1352 0
-240 -244 1332 1352 0
-240 -245 1317 1337 0
-240 -245 1317 1357 0
-240 -245 1337 1357 0
-241 -243 1327 1347 0
-241 -243 1327 1367 0
-241 -243 1347 1367 0
-241 -244 1332 1352 0
-241 -244 1332 1372 0
-241 -244 1352 1372 0
-241 -245 1337 1357 0
-241 -245 1337 1377 0
-241 -245 1357 1377 0
-1 -7 -672 -11 0
-1 -7 11 672 0
-1 -8 -677 -11 0
-1 -8 11 677 0
-1 -9 -682 -11 0
-1 -9 11 682 0
-1 -10 11 0
-2 -7 -692 -11 0
-2 -7 11 692 0
-2 -8 -697 -11 0
-2 -8 11 697 0
-2 -9 -702 -11 0
-2 -9 11 702 0
-2 -10 11 0
-3 -7 -712 -11 0
-3 -7 11 712 0
-3 -8 -717 -11 0
-3 -8 11 717 0
-3 -9 -722 -11 0
-3 -9 11 722 0
-3 -10 11 0
-4 -7 -732 -11 0
-4 -7 11 732 0
-4 -8 -737 -11 0
-4 -8 11 737 0
-4 -9 -742 -11 0
-4 -9 11 742 0
-4 -10 11 0
-5 -7 -752 -11 0
-5 -7 11 752 0
-5 -8 -757 -11 0
-5 -8 11 757 0
-5 -9 -762 -11 0
-5 -9 11 762 0
-5 -10 11 0
-6 -7 -772 -11 0
-6 -7 11 772 0
-6 -8 -777 -11 0
-6 -8 11 777 0
-6 -9 -782 -11 0
-6 -9 11 782 0
-6 -10 11 0
-12 -18 -672 -22 0
-12 -18 22 672 0
-12 -19 -677 -22 0
-12 -19 22 677 0
-12 -20 -682 -22 0
-12 -20 22 682 0
-12 -21 22 0
-13 -18 -692 -22 0
-13 -18 22 692 0
-13 -19 -697 -22 0
-13 -19 22 697 0
-13 -20 -702 -22 0
-13 -20 22 702 0
-13 -21 22 0
-14 -18 -712 -22 0
-14 -18 22 712 0
-14 -19 -717 -22 0
-14 -19 22 717 0
-14 -20 -722 -22 0
-14 -20 22 722 0
-14 -21 22 0
-15 -18 -732 -22 0
-15 -18 22 732 0
-15 -19 -737 -22 0
-15 -19 22 737 0
-15 -20 -742 -22 0
-15 -20 22 742 0
-15 -21 22 0
-16 -18 -752 -22 0
-16 -18 22 752 0
-16 -19 -757 -22 0
-16 -19 22 757 0
-16 -20 -762 -22 0
-16 -20 22 762 0
-16 -21 22 0
-17 -18 -772 -22 0
-17 -18 22 772 0
-17 -19 -777 -22 0
-17 -19 22 777 0
-17 -20 -782 -22 0
-17 -20 22 782 0
-17 -21 22 0
-23 -28 -672 -32 0
-23 -28 -692 -32 0
-23 -28 32 672 692 0
-23 -29 -677 -32 0
-23 -29 -697 -32 0
-23 -29 32 677 697 0
-23 -30 -682 -32 0
-23 -30 -702 -32 0
-23 -30 32 682 702 0
-23 -31 32 0
-24 -28 -692 -32 0
-24 -28 -712 -32 0
-24 -28 32 692 712 0
-24 -29 -697 -32 0
-24 -29 -717 -32 0
-24 -29 32 697 717 0
-24 -30 -702 -32 0
-24 -30 -722 -32 0
-24 -30 32 702 722 0
-24 -31 32 0
-25 -28 -712 -32 0
-25 -28 -732 -32 0
-25 -28 32 712 732 0
-25 -29 -717 -32 0
-25 -29 -737 -32 0
-25 -29 32 717 737 0
-25 -30 -722 -32 0
-25 -30 -742 -32 0
-25 -30 32 722 742 0
-25 -31 32 0
-26 -28 -732 -32 0
-26 -28 -752 -32 0
-26 -28 32 732 752 0
-26 -29 -737 -32 0
-26 -29 -757 -32 0
-26 -29 32 737 757 0
-26 -30 -742 -32 0
-26 -30 -762 -32 0
-26 -30 32 742 762 0
-26 -31 32 0
-27 -28 -752 -32 0
-27 -28 -772 -32 0
-27 -28 32 752 772 0
-27 -29 -757 -32 0
-27 -29 -777 -32 0
-27 -29 32 757 777 0
-27 -30 -762 -32 0
-27 -30 -782 -32 0
-27 -30 32 762 782 0
-27 -31 32 0
-33 -37 -672 -41 0
-33 -37 -692 -41 0
-33 -37 -712 -41 0
-33 -37 41 672 692 712 0
-33 -38 -677 -41 0
-33 -38 -697 -41 0
-33 -38 -717 -41 0
-33 -38 41 677 697 717 0
-33 -39 -682 -41 0
-33 -39 -702 -41 0
-33 -39 -722 -41 0
-33 -39 41 682 702 722 0
-33 -40 41 0
-34 -37 -692 -41 0
-34 -37 -712 -41 0
-34 -37 -732 -41 0
-34 -37 41 692 712 732 0
-34 -38 -697 -41 0
-34 -38 -717 -41 0
-34 -38 -737 -41 0
-34 -38 41 697 717 737 0
-34 -39 -702 -41 0
-34 -39 -722 -41 0
-34 -39 -742 -41 0
-34 -39 41 702 722 742 0
-34 -40 41 0
-35 -37 -712 -41 0
-35 -37 -732 -41 0
-35 -37 -752 -41 0
-35 -37 41 712 732 752 0
-35 -38 -717 -41 0
-35 -38 -737 -41 0
-35 -38 -757 -41 0
-35 -38 41 717 737 757 0
-35 -39 -722 -41 0
-35 -39 -742 -41 0
-35 -39 -762 -41 0
-35 -39 41 722 742 762 0
-35 -40 41 0
-36 -37 -732 -41 0
-36 -37 -752 -41 0
-36 -37 -772 -41 0
-36 -37 41 732 752 772 0
-36 -38 -737 -41 0
-36 -38 -757 -41 0
-36 -38 -777 -41 0
-36 -38 41 737 757 777 0
-36 -39 -742 -41 0
-36 -39 -762 -41 0
-36 -39 -782 -41 0
-36 -39 41 742 762 782 0
-36 -40 41 0
-42 -48 -792 -52 0
-42 -48 52 792 0
-42 -49 -797 -52 0
-42 -49 52 797 0
-42 -50 -802 -52 0
-42 -50 52 802 0
-42 -51 52 0
-43 -48 -812 -52 0
-43 -48 52 812 0
-43 -49 -817 -52 0
-43 -49 52 817 0
-43 -50 -822 -52 0
-43 -50 52 822 0
-43 -51 52 0
-44 -48 -832 -52 0
-44 -48 52 832 0
-44 -49 -837 -52 0
-44 -49 52 837 0
-44 -50 -842 -52 0
-44 -50 52 842 0
-44 -51 52 0
-45 -48 -852 -52 0
-45 -48 52 852 0
-45 -49 -857 -52 0
-45 -49 52 857 0
-45 -50 -862 -52 0
-45 -50 52 862 0
-45 -51 52 0
-46 -48 -872 -52 0
-46 -48 52 872 0
-46 -49 -877 -52 0
-46 -49 52 877 0
-46 -50 -882 -52 0
-46 -50 52 882 0
-46 -51 52 0
-47 -48 -892 -52 0
-47 -48 52 892 0
-47 -49 -897 -52 0
-47 -49 52 897 0
-47 -50 -902 -52 0
-47 -50 52 902 0
-47 -51 52 0
-53 -59 -792 -63 0
-53 -59 63 792 0
-53 -60 -797 -63 0
-53 -60 63 797 0
-53 -61 -802 -63 0
-53 -61 63 802 0
-53 -62 63 0
-54 -59 -812 -63 0
-54 -59 63 812 0
-54 -60 -817 -63 0
-54 -60 63 817 0
-54 -61 -822 -63 0
-54 -61 63 822 0
-54 -62 63 0
-55 -59 -832 -63 0
-55 -59 63 832 0
-55 -60 -837 -63 0
-55 -60 63 837 0
-55 -61 -842 -63 0
-55 -61 63 842 0
-55 -62 63 0
-56 -59 -852 -63 0
-56 -59 63 852 0
-56 -60 -857 -63 0
-56 -60 63 857 0
-56 -61 -862 -63 0
-56 -61 63 862 0
-56 -62 63 0
-57 -59 -872 -63 0
-57 -59 63 872 0
-57 -60 -877 -63 0
-57 -60 63 877 0
-57 -61 -882 -63 0
-57 -61 63 882 0
-57 -62 63 0
-58 -59 -892 -63 0
-58 -59 63 892 0
-58 -60 -897 -63 0
-58 -60 63 897 0
-58 -61 -902 -63 0
-58 -61 63 902 0
-58 -62 63 0
-64 -69 -792 -73 0
-64 -69 -812 -73 0
-64 -69 73 792 812 0
-64 -70 -797 -73 0
-64 -70 -817 -73 0
-64 -70 73 797 817 0
-64 -71 -802 -73 0
-64 -71 -822 -73 0
-64 -71 73 802 822 0
-64 -72 73 0
-65 -69 -812 -73 0
-65 -69 -832 -73 0
-65 -69 73 812 832 0
-65 -70 -817 -73 0
-65 -70 -837 -73 0
-65 -70 73 817 837 0
-65 -71 -822 -73 0
-65 -71 -842 -73 0
-65 -71 73 822 842 0
-65 -72 73 0
-66 -69 -832 -73 0
-66 -69 -852 -73 0
-66 -69 73 832 852 0
-66 -70 -837 -73 0
-66 -70 -857 -73 0
-66 -70 73 837 857 0
-66 -71 -842 -73 0
-66 -71 -862 -73 0
-66 -71 73 842 862 0
-66 -72 73 0
-67 -69 -852 -73 0
-67 -69 -872 -73 0
-67 -69 73 852 872 0
-67 -70 -857 -73 0
-67 -70 -877 -73 0
-67 -70 73 857 877 0
-67 -71 -862 -73 0
-67 -71 -882 -73 0
-67 -71 73 862 882 0
-67 -72 73 0
-68 -69 -872 -73 0
-68 -69 -892 -73 0
-68 -69 73 872 892 0
-68 -70 -877 -73 0
-68 -70 -897 -73 0
-68 -70 73 877 897 0
-68 -71 -882 -73 0
-68 -71 -902 -73 0
-68 -71 73 882 902 0
-68 -72 73 0
-74 -78 -792 -82 0
-74 -78 -812 -82 0
-74 -78 -832 -82 0
-74 -78 82 792 812 832 0
-74 -79 -797 -82 0
-74 -79 -817 -82 0
-74 -79 -837 -82 0
-74 -79 82 797 817 837 0
-74 -80 -802 -82 0
-74 -80 -822 -82 0
-74 -80 -842 -82 0
-74 -80 82 802 822 842 0
-74 -81 82 0
-75 -78 -812 -82 0
-75 -78 -832 -82 0
-75 -78 -852 -82 0
-75 -78 82 812 832 852 0
-75 -79 -817 -82 0
-75 -79 -837 -82 0
-75 -79 -857 -82 0
-75 -79 82 817 837 857 0
-75 -80 -822 -82 0
-75 -80 -842 -82 0
-75 -80 -862 -82 0
-75 -80 82 822 842 862 0
-75 -81 82 0
-76 -78 -832 -82 0
-76 -78 -852 -82 0
-76 -78 -872 -82 0
-76 -78 82 832 852 872 0
-76 -79 -837 -82 0
-76 -79 -857 -82 0
-76 -79 -877 -82 0
-76 -79 82 837 857 877 0
-76 -80 -842 -82 0
-76 -80 -862 -82 0
-76 -80 -882 -82 0
-76 -80 82 842 862 882 0
-76 -81 82 0
-77 -78 -852 -82 0
-77 -78 -872 -82 0
-77 -78 -892 -82 0
-77 -78 82 852 872 892 0
-77 -79 -857 -82 0
-77 -79 -877 -82 0
-77 -79 -897 -82 0
-77 -79 82 857 877 897 0
-77 -80 -862 -82 0
-77 -80 -882 -82 0
-77 -80 -902 -82 0
-77 -80 82 862 882 902 0
-77 -81 82 0
-83 -89 -912 -93 0
-83 -89 93 912 0
-83 -90 -917 -93 0
-83 -90 93 917 0
-83 -91 -922 -93 0
-83 -91 93 922 0
-83 -92 93 0
-84 -89 -932 -93 0
-84 -89 93 932 0
-84 -90 -937 -93 0
-84 -90 93 937 0
-84 -91 -942 -93 0
-84 -91 93 942 0
-84 -92 93 0
-85 -89 -952 -93 0
-85 -89 93 952 0
-85 -90 -957 -93 0
-85 -90 93 957 0
-85 -91 -962 -93 0
-85 -91 93 962 0
-85 -92 93 0
-86 -89 -972 -93 0
-86 -89 93 972 0
-86 -90 -977 -93 0
-86 -90 93 977 0
-86 -91 -982 -93 0
-86 -91 93 982 0
-86 -92 93 0
-87 -89 -992 -93 0
-87 -89 93 992 0
-87 -90 -997 -93 0
-87 -90 93 997 0
-87 -91 -1002 -93 0
-87 -91 93 1002 0
-87 -92 93 0
-88 -89 -1012 -93 0
-88 -89 93 1012 0
-88 -90 -1017 -93 0
-88 -90 93 1017 0
-88 -91 -1022 -93 0
-88 -91 93 1022 0
-88 -92 93 0
-94 -100 -912 -104 0
-94 -100 104 912 0
-94 -101 -917 -104 0
-94 -101 104 917 0
-94 -102 -922 -104 0
-94 -102 104 922 0
-94 -103 104 0
-95 -100 -932 -104 0
-95 -100 104 932 0
-95 -101 -937 -104 0
-95 -101 104 937 0
-95 -102 -942 -104 0
-95 -102 104 942 0
-95 -103 104 0
-96 -100 -952 -104 0
-96 -100 104 952 0
-96 -101 -957 -104 0
-96 -101 104 957 0
-96 -102 -962 -104 0
-96 -102 104 962 0
-96 -103 104 0
-97 -100 -972 -104 0
-97 -100 104 972 0
-97 -101 -977 -104 0
-97 -101 104 977 0
-97 -102 -982 -104 0
-97 -102 104 982 0
-97 -103 104 0
-98 -100 -992 -104 0
-98 -100 104 992 0
-98 -101 -997 -104 0
-98 -101 104 997 0
-98 -102 -1002 -104 0
-98 -102 104 1002 0
-98 -103 104 0
-99 -100 -1012 -104 0
-99 -100 104 1012 0
-99 -101 -1017 -104 0
-99 -101 104 1017 0
-99 -102 -1022 -104 0
-99 -102 104 1022 0
-99 -103 104 0
-105 -110 -912 -114 0
-105 -110 -932 -114 0
-105 -110 114 912 932 0
-105 -111 -917 -114 0
-105 -111 -937 -114 0
-105 -111 114 917 937 0
-105 -112 -922 -114 0
-105 -112 -942 -114 0
-105 -112 114 922 942 0
-105 -113 114 0
-106 -110 -932 -114 0
-106 -110 -952 -114 0
-106 -110 114 932 952 0
-106 -111 -937 -114 0
-106 -111 -957 -114 0
-106 -111 114 937 957 0
-106 -112 -942 -114 0
-106 -112 -962 -114 0
-106 -112 114 942 962 0
-106 -113 114 0
-107 -110 -952 -114 0
-107 -110 -972 -114 0
-107 -110 114 952 972 0
-107 -111 -957 -114 0
-107 -111 -977 -114 0
-107 -111 114 957 977 0
-107 -112 -962 -114 0
-107 -112 -982 -114 0
-107 -112 114 962 982 0
-107 -113 114 0
-108 -110 -972 -114 0
-108 -110 -992 -114 0
-108 -110 114 972 992 0
-108 -111 -977 -114 0
-108 -111 -997 -114 0
-108 -111 114 977 997 0
-108 -112 -982 -114 0
-108 -112 -1002 -114 0
-108 -112 114 982 1002 0
-108 -113 114 0
-109 -110 -992 -114 0
-109 -110 -1012 -114 0
-109 -110 114 992 1012 0
-109 -111 -997 -114 0
-109 -111 -1017 -114 0
-109 -111 114 997 1017 0
-109 -112 -1002 -114 0
-109 -112 -1022 -114 0
-109 -112 114 1002 1022 0
-109 -113 114 0
-115 -119 -912 -123 0
-115 -119 -932 -123 0
-115 -119 -952 -123 0
-115 -119 123 912 932 952 0
-115 -120 -917 -123 0
-115 -120 -937 -123 0
-115 -120 -957 -123 0
-115 -120 123 917 937 957 0
-115 -121 -922 -123 0
-115 -121 -942 -123 0
-115 -121 -962 -123 0
-115 -121 123 922 942 962 0
-115 -122 123 0
-116 -119 -932 -123 0
-116 -119 -952 -123 0
-116 -119 -972 -123 0
-116 -119 123 932 952 972 0
-116 -120 -937 -123 0
-116 -120 -957 -123 0
-116 -120 -977 -123 0
-116 -120 123 937 957 977 0
-116 -121 -942 -123 0
-116 -121 -962 -123 0
-116 -121 -982 -123 0
-116 -121 123 942 962 982 0
-116 -122 123 0
-117 -119 -952 -123 0
-117 -119 -972 -123 0
-117 -119 -992 -123 0
-117 -119 123 952 972 992 0
-117 -120 -957 -123 0
-117 -120 -977 -123 0
-117 -120 -997 -123 0
-117 -120 123 957 977 997 0
-117 -121 -962 -123 0
-117 -121 -982 -123 0
-117 -121 -1002 -123 0
-117 -121 123 962 982 1002 0
-117 -122 123 0
-118 -119 -972 -123 0
-118 -119 -992 -123 0
-118 -119 -1012 -123 0
-118 -119 123 972 992 1012 0
-118 -120 -977 -123 0
-118 -120 -997 -123 0
-118 -120 -1017 -123 0
-118 -120 123 977 997 1017 0
-118 -121 -982 -123 0
-118 -121 -1002 -123 0
-118 -121 -1022 -123 0
-118 -121 123 982 1002 1022 0
-118 -122 123 0
-124 -130 -1032 -134 0
-124 -130 134 1032 0
-124 -131 -1037 -134 0
-124 -131 134 1037 0
-124 -132 -1042 -134 0
-124 -132 134 1042 0
-124 -133 134 0
-125 -130 -1052 -134 0
-125 -130 134 1052 0
-125 -131 -1057 -134 0
-125 -131 134 1057 0
-125 -132 -1062 -134 0
-125 -132 134 1062 0
-125 -133 134 0
-126 -130 -1072 -134 0
-126 -130 134 1072 0
-126 -131 -1077 -134 0
-126 -131 134 1077 0
-126 -132 -1082 -134 0
-126 -132 134 1082 0
-126 -133 134 0
-127 -130 -1092 -134 0
-127 -130 134 1092 0
-127 -131 -1097 -134 0
-127 -131 134 1097 0
-127 -132 -1102 -134 0
-127 -132 134 1102 0
-127 -133 134 0
-128 -130 -1112 -134 0
-128 -130 134 1112 0
-128 -131 -1117 -134 0
-128 -131 134 1117 0
-128 -132 -1122 -134 0
-128 -132 134 1122 0
-128 -133 134 0
-129 -130 -1132 -134 0
-129 -130 134 1132 0
-129 -131 -1137 -134 0
-129 -131 134 1137 0
-129 -132 -1142 -134 0
-129 -132 134 1142 0
-129 -133 134 0
-135 -141 -1032 -145 0
-135 -141 145 1032 0
-135 -142 -1037 -145 0
-135 -142 145 1037 0
-135 -143 -1042 -145 0
-135 -143 145 1042 0
-135 -144 145 0
-136 -141 -1052 -145 0
-136 -141 145 1052 0
-136 -142 -1057 -145 0
-136 -142 145 1057 0
-136 -143 -1062 -145 0
-136 -143 145 1062 0
-136 -144 145 0
-137 -141 -1072 -145 0
-137 -141 145 1072 0
-137 -142 -1077 -145 0
-137 -142 145 1077 0
-137 -143 -1082 -145 0
-137 -143 145 1082 0
-137 -144 145 0
-138 -141 -1092 -145 0
-138 -141 145 1092 0
-138 -142 -1097 -145 0
-138 -142 145 1097 0
-138 -143 -1102 -145 0
-138 -143 145 1102 0
-138 -144 145 0
-139 -141 -1112 -145 0
-139 -141 145 1112 0
-139 -142 -1117 -145 0
-139 -142 145 1117 0
-139 -143 -1122 -145 0
-139 -143 145 1122 0
-139 -144 145 0
-140 -141 -1132 -145 0
-140 -141 145 1132 0
-140 -142 -1137 -145 0
-140 -142 145 1137 0
-140 -143 -1142 -145 0
-140 -143 145 1142 0
-140 -144 145 0
-146 -151 -1032 -155 0
-146 -151 -1052 -155 0
-146 -151 155 1032 1052 0
-146 -152 -1037 -155 0
-146 -152 -1057 -155 0
-146 -152 155 1037 1057 0
-146 -153 -1042 -155 0
-146 -153 -1062 -155 0
-146 -153 155 1042 1062 0
-146 -154 155 0
-147 -151 -1052 -155 0
-147 -151 -1072 -155 0
-147 -151 155 1052 1072 0
-147 -152 -1057 -155 0
-147 -152 -1077 -155 0
-147 -152 155 1057 1077 0
-147 -153 -1062 -155 0
-147 -153 -1082 -155 0
-147 -153 155 1062 1082 0
-147 -154 155 0
-148 -151 -1072 -155 0
-148 -151 -1092 -155 0
-148 -151 155 1072 1092 0
-148 -152 -1077 -155 0
-148 -152 -1097 -155 0
-148 -152 155 1077 1097 0
-148 -153 -1082 -155 0
-148 -153 -1102 -155 0
-148 -153 155 1082 1102 0
-148 -154 155 0
-149 -151 -1092 -155 0
-149 -151 -1112 -155 0
-149 -151 155 1092 1112 0
-149 -152 -1097 -155 0
-149 -152 -1117 -155 0
-149 -152 155 1097 1117 0
-149 -153 -1102 -155 0
-149 -153 -1122 -155 0
-149 -153 155 1102 1122 0
-149 -154 155 0
-150 -151 -1112 -155 0
-150 -151 -1132 -155 0
-150 -151 155 1112 1132 0
-150 -152 -1117 -155 0
-150 -152 -1137 -155 0
-150 -152 155 1117 1137 0
-150 -153 -1122 -155 0
-150 -153 -1142 -155 0
-150 -153 155 1122 1142 0
-150 -154 155 0
-156 -160 -1032 -164 0
-156 -160 -1052 -164 0
-156 -160 -1072 -164 0
-156 -160 164 1032 1052 1072 0
-156 -161 -1037 -164 0
-156 -161 -1057 -164 0
-156 -161 -1077 -164 0
-156 -161 164 1037 1057 1077 0
-156 -162 -1042 -164 0
-156 -162 -1062 -164 0
-156 -162 -1082 -164 0
-156 -162 164 1042 1062 1082 0
-156 -163 164 0
-157 -160 -1052 -164 0
-157 -160 -1072 -164 0
-157 -160 -1092 -164 0
-157 -160 164 1052 1072 1092 0
-157 -161 -1057 -164 0
-157 -161 -1077 -164 0
-157 -161 -1097 -164 0
-157 -161 164 1057 1077 1097 0
-157 -162 -1062 -164 0
-157 -162 -1082 -164 0
-157 -162 -1102 -164 0
-157 -162 164 1062 1082 1102 0
-157 -163 164 0
-158 -160 -1072 -164 0
-158 -160 -1092 -164 0
-158 -160 -1112 -164 0
-158 -160 164 1072 1092 1112 0
-158 -161 -1077 -164 0
-158 -161 -1097 -164 0
-158 -161 -1117 -164 0
-158 -161 164 1077 1097 1117 0
-158 -162 -1082 -164 0
-158 -162 -1102 -164 0
-158 -162 -1122 -164 0
-158 -162 164 1082 1102 1122 0
-158 -163 164 0
-159 -160 -1092 -164 0
-159 -160 -1112 -164 0
-159 -160 -1132 -164 0
-159 -160 164 1092 1112 1132 0
-159 -161 -1097 -164 0
-159 -161 -1117 -164 0
-159 -161 -1137 -164 0
-159 -161 164 1097 1117 1137 0
-159 -162 -1102 -164 0
-159 -162 -1122 -164 0
-159 -162 -1142 -164 0
-159 -162 164 1102 1122 1142 0
-159 -163 164 0
-165 -171 -1152 -175 0
-165 -171 175 1152 0
-165 -172 -1157 -175 0
-165 -172 175 1157 0
-165 -173 -1162 -175 0
-165 -173 175 1162 0
-165 -174 175 0
-166 -171 -1172 -175 0
-166 -171 175 1172 0
-166 -172 -1177 -175 0
-166 -172 175 1177 0
-166 -173 -1182 -175 0
-166 -173 175 1182 0
-166 -174 175 0
-167 -171 -1192 -175 0
-167 -171 175 1192 0
-167 -172 -1197 -175 0
-167 -172 175 1197 0
-167 -173 -1202 -175 0
-167 -173 175 1202 0
-167 -174 175 0
-168 -171 -1212 -175 0
-168 -171 175 1212 0
-168 -172 -1217 -175 0
-168 -172 175 1217 0
-168 -173 -1222 -175 0
-168 -173 175 1222 0
-168 -174 175 0
-169 -171 -1232 -175 0
-169 -171 175 1232 0
-169 -172 -1237 -175 0
-169 -172 175 1237 0
-169 -173 -1242 -175 0
-169 -173 175 1242 0
-169 -174 175 0
-170 -171 -1252 -175 0
-170 -171 175 1252 0
-170 -172 -1257 -175 0
-170 -172 175 1257 0
-170 -173 -1262 -175 0
-170 -173 175 1262 0
-170 -174 175 0
-176 -182 -1152 -186 0
-176 -182 186 1152 0
-176 -183 -1157 -186 0
-176 -183 186 1157 0
-176 -184 -1162 -186 0
-176 -184 186 1162 0
-176 -185 186 0
-177 -182 -1172 -186 0
-177 -182 186 1172 0
-177 -183 -1177 -186 0
-177 -183 186 1177 0
-177 -184 -1182 -186 0
-177 -184 186 1182 0
-177 -185 186 0
-178 -182 -1192 -186 0
-178 -182 186 1192 0
-178 -183 -1197 -186 0
-178 -183 186 1197 0
-178 -184 -1202 -186 0
-178 -184 186 1202 0
-178 -185 186 0
-179 -182 -1212 -186 0
-179 -182 186 1212 0
-179 -183 -1217 -186 0
-179 -183 186 1217 0
-179 -184 -1222 -186 0
-179 -184 186 1222 0
-179 -185 186 0
-180 -182 -1232 -186 0
-180 -182 186 1232 0
-180 -183 -1237 -186 0
-180 -183 186 1237 0
-180 -184 -1242 -186 0
-180 -184 186 1242 0
-180 -185 186 0
-181 -182 -1252 -186 0
-181 -182 186 1252 0
-181 -183 -1257 -186 0
-181 -183 186 1257 0
-181 -184 -1262 -186 0
-181 -184 186 1262 0
-181 -185 186 0
-187 -192 -1152 -196 0
-187 -192 -1172 -196 0
-187 -192 196 1152 1172 0
-187 -193 -1157 -196 0
-187 -193 -1177 -196 0
-187 -193 196 1157 1177 0
-187 -194 -1162 -196 0
-187 -194 -1182 -196 0
-187 -194 196 1162 1182 0
-187 -195 196 0
-188 -192 -1172 -196 0
-188 -192 -1192 -196 0
-188 -192 196 1172 1192 0
-188 -193 -1177 -196 0
-188 -193 -1197 -196 0
-188 -193 196 1177 1197 0
-188 -194 -1182 -196 0
-188 -194 -1202 -196 0
-188 -194 196 1182 1202 0
-188 -195 196 0
-189 -192 -1192 -196 0
-189 -192 -1212 -196 0
-189 -192 196 1192 1212 0
-189 -193 -1197 -196 0
-189 -193 -1217 -196 0
-189 -193 196 1197 1217 0
-189 -194 -1202 -196 0
-189 -194 -1222 -196 0
-189 -194 196 1202 1222 0
-189 -195 196 0
-190 -192 -1212 -196 0
-190 -192 -1232 -196 0
-190 -192 196 1212 1232 0
-190 -193 -1217 -196 0
-190 -193 -1237 -196 0
-190 -193 196 1217 1237 0
-190 -194 -1222 -196 0
-190 -194 -1242 -196 0
-190 -194 196 1222 1242 0
-190 -195 196 0
-191 -192 -1232 -196 0
-191 -192 -1252 -196 0
-191 -192 196 1232 1252 0
-191 -193 -1237 -196 0
-191 -193 -1257 -196 0
-191 -193 196 1237 1257 0
-191 -194 -1242 -196 0
-191 -194 -1262 -196 0
-191 -194 196 1242 1262 0
-191 -195 196 0
-197 -201 -1152 -205 0
-197 -201 -1172 -205 0
-197 -201 -1192 -205 0
-197 -201 205 1152 1172 1192 0
-197 -202 -1157 -205 0
-197 -202 -1177 -205 0
-197 -202 -1197 -205 0
-197 -202 205 1157 1177 1197 0
-197 -203 -1162 -205 0
-197 -203 -1182 -205 0
-197 -203 -1202 -205 0
-197 -203 205 1162 1182 1202 0
-197 -204 205 0
-198 -201 -1172 -205 0
-198 -201 -1192 -205 0
-198 -201 -1212 -205 0
-198 -201 205 1172 1192 1212 0
-198 -202 -1177 -205 0
-198 -202 -1197 -205 0
-198 -202 -1217 -205 0
-198 -202 205 1177 1197 1217 0
-198 -203 -1182 -205 0
-198 -203 -1202 -205 0
-198 -203 -1222 -205 0
-198 -203 205 1182 1202 1222 0
-198 -204 205 0
-199 -201 -1192 -205 0
-199 -201 -1212 -205 0
-199 -201 -1232 -205 0
-199 -201 205 1192 1212 1232 0
-199 -202 -1197 -205 0
-199 -202 -1217 -205 0
-199 -202 -1237 -205 0
-199 -202 205 1197 1217 1237 0
-199 -203 -1202 -205 0
-199 -203 -1222 -205 0
-199 -203 -1242 -205 0
-199 -203 205 1202 1222 1242 0
-199 -204 205 0
-200 -201 -1212 -205 0
-200 -201 -1232 -205 0
-200 -201 -1252 -205 0
-200 -201 205 1212 1232 1252 0
-200 -202 -1217 -205 0
-200 -202 -1237 -205 0
-200 -202 -1257 -205 0
-200 -202 205 1217 1237 1257 0
-200 -203 -1222 -205 0
-200 -203 -1242 -205 0
-200 -203 -1262 -205 0
-200 -203 205 1222 1242 1262 0
-200 -204 205 0
-206 -212 -1272 -216 0
-206 -212 216 1272 0
-206 -213 -1277 -216 0
-206 -213 216 1277 0
-206 -214 -1282 -216 0
-206 -214 216 1282 0
-206 -215 216 0
-207 -212 -1292 -216 0
-207 -212 216 1292 0
-207 -213 -1297 -216 0
-207 -213 216 1297 0
-207 -214 -1302 -216 0
-207 -214 216 1302 0
-207 -215 216 0
-208 -212 -1312 -216 0
-208 -212 216 1312 0
-208 -213 -1317 -216 0
-208 -213 216 1317 0
-208 -214 -1322 -216 0
-208 -214 216 1322 0
-208 -215 216 0
-209 -212 -1332 -216 0
-209 -212 216 1332 0
-209 -213 -1337 -216 0
-209 -213 216 1337 0
-209 -214 -1342 -216 0
-209 -214 216 1342 0
-209 -215 216 0
-210 -212 -1352 -216 0
-210 -212 216 1352 0
-210 -213 -1357 -216 0
-210 -213 216 1357 0
-210 -214 -1362 -216 0
-210 -214 216 1362 0
-210 -215 216 0
-211 -212 -1372 -216 0
-211 -212 216 1372 0
-211 -213 -1377 -216 0
-211 -213 216 1377 0
-211 -214 -1382 -216 0
-211 -214 216 1382 0
-211 -215 216 0
-217 -223 -1272 -227 0
-217 -223 227 1272 0
-217 -224 -1277 -227 0
-217 -224 227 1277 0
-217 -225 -1282 -227 0
-217 -225 227 1282 0
-217 -226 227 0
-218 -223 -1292 -227 0
-218 -223 227 1292 0
-218 -224 -1297 -227 0
-218 -224 227 1297 0
-218 -225 -1302 -227 0
-218 -225 227 1302 0
-218 -226 227 0
-219 -223 -1312 -227 0
-219 -223 227 1312 0
-219 -224 -1317 -227 0
-219 -224 227 1317 0
-219 -225 -1322 -227 0
-219 -225 227 1322 0
-219 -226 227 0
-220 -223 -1332 -227 0
-220 -223 227 1332 0
-220 -224 -1337 -227 0
-220 -224 227 1337 0
-220 -225 -1342 -227 0
-220 -225 227 1342 0
-220 -226 227 0
-221 -223 -1352 -227 0
-221 -223 227 1352 0
-221 -224 -1357 -227 0
-221 -224 227 1357 0
-221 -225 -1362 -227 0
-221 -225 227 1362 0
-221 -226 227 0
-222 -223 -1372 -227 0
-222 -223 227 1372 0
-222 -224 -1377 -227 0
-222 -224 227 1377 0
-222 -225 -1382 -227 0
-222 -225 227 1382 0
-222 -226 227 0
-228 -233 -1272 -237 0
-228 -233 -1292 -237 0
-228 -233 237 1272 1292 0
-228 -234 -1277 -237 0
-228 -234 -1297 -237 0
-228 -234 237 1277 1297 0
-228 -235 -1282 -237 0
-228 -235 -1302 -237 0
-228 -235 237 1282 1302 0
-228 -236 237 0
-229 -233 -1292 -237 0
-229 -233 -1312 -237 0
-229 -233 237 1292 1312 0
-229 -234 -1297 -237 0
-229 -234 -1317 -237 0
-229 -234 237 1297 1317 0
-229 -235 -1302 -237 0
-229 -235 -1322 -237 0
-229 -235 237 1302 1322 0
-229 -236 237 0
-230 -233 -1312 -237 0
-230 -233 -1332 -237 0
-230 -233 237 1312 1332 0
-230 -234 -1317 -237 0
-230 -234 -1337 -237 0
-230 -234 237 1317 1337 0
-230 -235 -1322 -237 0
-230 -235 -1342 -237 0
-230 -235 237 1322 1342 0
-230 -236 237 0
-231 -233 -1332 -237 0
-231 -233 -1352 -237 0
-231 -233 237 1332 1352 0
-231 -234 -1337 -237 0
-231 -234 -1357 -237 0
-231 -234 237 1337 1357 0
-231 -235 -1342 -237 0
-231 -235 -1362 -237 0
-231 -235 237 1342 1362 0
-231 -236 237 0
-232 -233 -1352 -237 0
-232 -233 -1372 -237 0
-232 -233 237 1352 1372 0
-232 -234 -1357 -237 0
-232 -234 -1377 -237 0
-232 -234 237 1357 1377 0
-232 -235 -1362 -237 0
-232 -235 -1382 -237 0
-232 -235 237 1362 1382 0
-232 -236 237 0
-238 -242 -1272 -246 0
-238 -242 -1292 -246 0
-238 -242 -1312 -246 0
-238 -242 246 1272 1292 1312 0
-238 -243 -1277 -246 0
-238 -243 -1297 -246 0
-238 -243 -1317 -246 0
-238 -243 246 1277 1297 1317 0
-238 -244 -1282 -246 0
-238 -244 -1302 -246 0
-238 -244 -1322 -246 0
-238 -244 246 1282 1302 1322 0
-238 -245 246 0
-239 -242 -1292 -246 0
-239 -242 -1312 -246 0
-239 -242 -1332 -246 0
-239 -242 246 1292 1312 1332 0
-239 -243 -1297 -246 0
-239 -243 -1317 -246 0
-239 -243 -1337 -246 0
-239 -243 246 1297 1317 1337 0
-239 -244 -1302 -246 0
-239 -244 -1322 -246 0
-239 -244 -1342 -246 0
-239 -244 246 1302 1322 1342 0
-239 -245 246 0
-240 -242 -1312 -246 0
-240 -242 -1332 -246 0
-240 -242 -1352 -246 0
-240 -242 246 1312 1332 1352 0
-240 -243 -1317 -246 0
-240 -243 -1337 -246 0
-240 -243 -1357 -246 0
-240 -243 246 1317 1337 1357 0
-240 -244 -1322 -246 0
-240 -244 -1342 -246 0
-240 -244 -1362 -246 0
-240 -244 246 1322 1342 1362 0
-240 -245 246 0
-241 -242 -1332 -246 0
-241 -242 -1352 -246 0
-241 -242 -1372 -246 0
-241 -242 246 1332 1352 1372 0
-241 -243 -1337 -246 0
-241 -243 -1357 -246 0
-241 -243 -1377 -246 0
-241 -243 246 1337 1357 1377 0
-241 -244 -1342 -246 0
-241 -244 -1362 -246 0
-241 -244 -1382 -246 0
-241 -244 246 1342 1362 1382 0
-241 -245 246 0
-247 11 0
-247 -21 0
-247 -1 -18 -8 0
-247 -1 -19 -9 0
-247 -1 -20 -10 0
-247 -13 0
-247 -14 0
-247 -15 0
-247 -16 0
-247 -17 0
-247 -18 -23 -29 0
-247 -18 -23 -30 0
-247 -18 -23 -31 0
-247 -19 -23 -30 0
-247 -19 -23 -31 0
-247 -20 -23 -31 0
-247 -18 -33 -38 0
-247 -18 -33 -39 0
-247 -18 -33 -40 0
-247 -19 -33 -39 0
-247 -19 -33 -40 0
-247 -20 -33 -40 0
-247 42 0
-247 -18 49 0
-247 -19 50 0
-247 -20 51 0
-247 -63 0
-248 11 0
-248 -21 0
-248 -2 -18 -8 0
-248 -2 -19 -9 0
-248 -2 -20 -10 0
-248 -12 0
-248 -14 0
-248 -15 0
-248 -16 0
-248 -17 0
-248 -18 -23 -29 0
-248 -18 -23 -30 0
-248 -18 -23 -31 0
-248 -19 -23 -30 0
-248 -19 -23 -31 0
-248 -20 -23 -31 0
-248 -18 -24 -29 0
-248 -18 -24 -30 0
-248 -18 -24 -31 0
-248 -19 -24 -30 0
-248 -19 -24 -31 0
-248 -20 -24 -31 0
-248 -18 -33 -38 0
-248 -18 -33 -39 0
-248 -18 -33 -40 0
-248 -19 -33 -39 0
-248 -19 -33 -40 0
-248 -20 -33 -40 0
-248 -18 -34 -38 0
-248 -18 -34 -39 0
-248 -18 -34 -40 0
-248 -19 -34 -39 0
-248 -19 -34 -40 0
-248 -20 -34 -40 0
-248 43 0
-248 -18 49 0
-248 -19 50 0
-248 -20 51 0
-248 -63 0
-249 11 0
-249 -21 0
-249 -3 -18 -8 0
-249 -3 -19 -9 0
-249 -3 -20 -10 0
-249 -12 0
-249 -13 0
-249 -15 0
-249 -16 0
-249 -17 0
-249 -18 -24 -29 0
-249 -18 -24 -30 0
-249 -18 -24 -31 0
-249 -19 -24 -30 0
-249 -19 -24 -31 0
-249 -20 -24 -31 0
-249 -18 -25 -29 0
-249 -18 -25 -30 0
-249 -18 -25 -31 0
-249 -19 -25 -30 0
-249 -19 -25 -31 0
-249 -20 -25 -31 0
-249 -18 -33 -38 0
-249 -18 -33 -39 0
-249 -18 -33 -40 0
-249 -19 -33 -39 0
-249 -19 -33 -40 0
-249 -20 -33 -40 0
-249 -18 -34 -38 0
-249 -18 -34 -39 0
-249 -18 -34 -40 0
-249 -19 -34 -39 0
-249 -19 -34 -40 0
-249 -20 -34 -40 0
-249 -18 -35 -38 0
-249 -18 -35 -39 0
-249 -18 -35 -40 0
-249 -19 -35 -39 0
-249 -19 -35 -40 0
-249 -20 -35 -40 0
-249 44 0
-249 -18 49 0
-249 -19 50 0
-249 -20 51 0
-249 -63 0
-250 11 0
-250 -21 0
-250 -4 -18 -8 0
-250 -4 -19 -9 0
-250 -4 -20 -10 0
-250 -12 0
-250 -13 0
-250 -14 0
-250 -16 0
-250 -17 0
-250 -18 -25 -29 0
-250 -18 -25 -30 0
-250 -18 -25 -31 0
-250 -19 -25 -30 0
-250 -19 -25 -31 0
-250 -20 -25 -31 0
-250 -18 -26 -29 0
-250 -18 -26 -30 0
-250 -18 -26 -31 0
-250 -19 -26 -30 0
-250 -19 -26 -31 0
-250 -20 -26 -31 0
-250 -18 -34 -38 0
-250 -18 -34 -39 0
-250 -18 -34 -40 0
-250 -19 -34 -39 0
-250 -19 -34 -40 0
-250 -20 -34 -40 0
-250 -18 -35 -38 0
-250 -18 -35 -39 0
-250 -18 -35 -40 0
-250 -19 -35 -39 0
-250 -19 -35 -40 0
-250 -20 -35 -40 0
-250 -18 -36 -38 0
-250 -18 -36 -39 0
-250 -18 -36 -40 0
-250 -19 -36 -39 0
-250 -19 -36 -40 0
-250 -20 -36 -40 0
-250 45 0
-250 -18 49 0
-250 -19 50 0
-250 -20 51 0
-250 -63 0
-251 11 0
-251 -21 0
-251 -5 -18 -8 0
-251 -5 -19 -9 0
-251 -5 -20 -10 0
-251 -12 0
-251 -13 0
-251 -14 0
-251 -15 0
-251 -17 0
-251 -18 -26 -29 0
-251 -18 -26 -30 0
-251 -18 -26 -31 0
-251 -19 -26 -30 0
-251 -19 -26 -31 0
-251 -20 -26 -31 0
-251 -18 -27 -29 0
-251 -18 -27 -30 0
-251 -18 -27 -31 0
-251 -19 -27 -30 0
-251 -19 -27 -31 0
-251 -20 -27 -31 0
-251 -18 -35 -38 0
-251 -18 -35 -39 0
-251 -18 -35 -40 0
-251 -19 -35 -39 0
-251 -19 -35 -40 0
-251 -20 -35 -40 0
-251 -18 -36 -38 0
-251 -18 -36 -39 0
-251 -18 -36 -40 0
-251 -19 -36 -39 0
-251 -19 -36 -40 0
-251 -20 -36 -40 0
-251 46 0
-251 -18 49 0
-251 -19 50 0
-251 -20 51 0
-251 -63 0
-252 11 0
-252 -21 0
-252 -6 -18 -8 0
-252 -6 -19 -9 0
-252 -6 -20 -10 0
-252 -12 0
-252 -13 0
-252 -14 0
-252 -15 0
-252 -16 0
-252 -18 -27 -29 0
-252 -18 -27 -30 0
-252 -18 -27 -31 0
-252 -19 -27 -30 0
-252 -19 -27 -31 0
-252 -20 -27 -31 0
-252 -18 -36 -38 0
-252 -18 -36 -39 0
-252 -18 -36 -40 0
-252 -19 -36 -39 0
-252 -19 -36 -40 0
-252 -20 -36 -40 0
-252 47 0
-252 -18 49 0
-252 -19 50 0
-252 -20 51 0
-252 -63 0
-253 11 0
-253 -31 0
-253 -1 -28 -8 0
-253 -1 -29 -9 0
-253 -1 -30 -10 0
-253 -24 0
-253 -25 0
-253 -26 0
-253 -27 0
-253 -28 -12 -19 0
-253 -28 -12 -20 0
-253 -28 -12 -21 0
-253 -29 -12 -20 0
-253 -29 -12 -21 0
-253 -30 -12 -21 0
-253 -28 -33 -38 0
-253 -28 -33 -39 0
-253 -28 -33 -40 0
-253 -29 -33 -39 0
-253 -29 -33 -40 0
-253 -30 -33 -40 0
-253 42 0
-253 -28 49 0
-253 -29 50 0
-253 -30 51 0
-253 -73 0
-254 11 0
-254 -31 0
-254 -2 -28 -8 0
-254 -2 -29 -9 0
-254 -2 -30 -10 0
-254 -25 0
-254 -26 0
-254 -27 0
-254 -28 -13 -19 0
-254 -28 -13 -20 0
-254 -28 -13 -21 0
-254 -29 -13 -20 0
-254 -29 -13 -21 0
-254 -30 -13 -21 0
-254 -28 -33 -38 0
-254 -28 -33 -39 0
-254 -28 -33 -40 0
-254 -29 -33 -39 0
-254 -29 -33 -40 0
-254 -30 -33 -40 0
-254 -28 -34 -38 0
-254 -28 -34 -39 0
-254 -28 -34 -40 0
-254 -29 -34 -39 0
-254 -29 -34 -40 0
-254 -30 -34 -40 0
-254 43 0
-254 -28 49 0
-254 -29 50 0
-254 -30 51 0
-254 -73 0
-255 11 0
-255 -31 0
-255 -3 -28 -8 0
-255 -3 -29 -9 0
-255 -3 -30 -10 0
-255 -23 0
-255 -26 0
-255 -27 0
-255 -28 -14 -19 0
-255 -28 -14 -20 0
-255 -28 -14 -21 0
-255 -29 -14 -20 0
-255 -29 -14 -21 0
-255 -30 -14 -21 0
-255 -28 -33 -38 0
-255 -28 -33 -39 0
-255 -28 -33 -40 0
-255 -29 -33 -39 0
-255 -29 -33 -40 0
-255 -30 -33 -40 0
-255 -28 -34 -38 0
-255 -28 -34 -39 0
-255 -28 -34 -40 0
-255 -29 -34 -39 0
-255 -29 -34 -40 0
-255 -30 -34 -40 0
-255 -28 -35 -38 0
-255 -28 -35 -39 0
-255 -28 -35 -40 0
-255 -29 -35 -39 0
-255 -29 -35 -40 0
-255 -30 -35 -40 0
-255 44 0
-255 -28 49 0
-255 -29 50 0
-255 -30 51 0
-255 -73 0
-256 11 0
-256 -31 0
-256 -4 -28 -8 0
-256 -4 -29 -9 0
-256 -4 -30 -10 0
-256 -23 0
-256 -24 0
-256 -27 0
-256 -28 -15 -19 0
-256 -28 -15 -20 0
-256 -28 -15 -21 0
-256 -29 -15 -20 0
-256 -29 -15 -21 0
-256 -30 -15 -21 0
-256 -28 -34 -38 0
-256 -28 -34 -39 0
-256 -28 -34 -40 0
-256 -29 -34 -39 0
-256 -29 -34 -40 0
-256 -30 -34 -40 0
-256 -28 -35 -38 0
-256 -28 -35 -39 0
-256 -28 -35 -40 0
-256 -29 -35 -39 0
-256 -29 -35 -40 0
-256 -30 -35 -40 0
-256 -28 -36 -38 0
-256 -28 -36 -39 0
-256 -28 -36 -40 0
-256 -29 -36 -39 0
-256 -29 -36 -40 0
-256 -30 -36 -40 0
-256 45 0
-256 -28 49 0
-256 -29 50 0
-256 -30 51 0
-256 -73 0
-257 11 0
-257 -31 0
-257 -5 -28 -8 0
-257 -5 -29 -9 0
-257 -5 -30 -10 0
-257 -23 0
-257 -24 0
-257 -25 0
-257 -28 -16 -19 0
-257 -28 -16 -20 0
-257 -28 -16 -21 0
-257 -29 -16 -20 0
-257 -29 -16 -21 0
-257 -30 -16 -21 0
-257 -28 -35 -38 0
-257 -28 -35 -39 0
-257 -28 -35 -40 0
-257 -29 -35 -39 0
-257 -29 -35 -40 0
-257 -30 -35 -40 0
-257 -28 -36 -38 0
-257 -28 -36 -39 0
-257 -28 -36 -40 0
-257 -29 -36 -39 0
-257 -29 -36 -40 0
-257 -30 -36 -40 0
-257 46 0
-257 -28 49 0
-257 -29 50 0
-257 -30 51 0
-257 -73 0
-258 11 0
-258 -31 0
-258 -6 -28 -8 0
-258 -6 -29 -9 0
-258 -6 -30 -10 0
-258 -23 0
-258 -24 0
-258 -25 0
-258 -26 0
-258 -28 -17 -19 0
-258 -28 -17 -20 0
-258 -28 -17 -21 0
-258 -29 -17 -20 0
-258 -29 -17 -21 0
-258 -30 -17 -21 0
-258 -28 -36 -38 0
-258 -28 -36 -39 0
-258 -28 -36 -40 0
-258 -29 -36 -39 0
-258 -29 -36 -40 0
-258 -30 -36 -40 0
-258 47 0
-258 -28 49 0
-258 -29 50 0
-258 -30 51 0
-258 -73 0
-259 11 0
-259 -40 0
-259 -1 -37 -8 0
-259 -1 -38 -9 0
-259 -1 -39 -10 0
-259 -34 0
-259 -35 0
-259 -36 0
-259 -37 -12 -19 0
-259 -37 -12 -20 0
-259 -37 -12 -21 0
-259 -38 -12 -20 0
-259 -38 -12 -21 0
-259 -39 -12 -21 0
-259 -37 -23 -29 0
-259 -37 -23 -30 0
-259 -37 -23 -31 0
-259 -38 -23 -30 0
-259 -38 -23 -31 0
-259 -39 -23 -31 0
-259 42 0
-259 -37 49 0
-259 -38 50 0
-259 -39 51 0
-259 -82 0
-260 11 0
-260 -40 0
-260 -2 -37 -8 0
-260 -2 -38 -9 0
-260 -2 -39 -10 0
-260 -35 0
-260 -36 0
-260 -37 -13 -19 0
-260 -37 -13 -20 0
-260 -37 -13 -21 0
-260 -38 -13 -20 0
-260 -38 -13 -21 0
-260 -39 -13 -21 0
-260 -37 -23 -29 0
-260 -37 -23 -30 0
-260 -37 -23 -31 0
-260 -38 -23 -30 0
-260 -38 -23 -31 0
-260 -39 -23 -31 0
-260 -37 -24 -29 0
-260 -37 -24 -30 0
-260 -37 -24 -31 0
-260 -38 -24 -30 0
-260 -38 -24 -31 0
-260 -39 -24 -31 0
-260 43 0
-260 -37 49 0
-260 -38 50 0
-260 -39 51 0
-260 -82 0
-261 11 0
-261 -40 0
-261 -3 -37 -8 0
-261 -3 -38 -9 0
-261 -3 -39 -10 0
-261 -36 0
-261 -37 -14 -19 0
-261 -37 -14 -20 0
-261 -37 -14 -21 0
-261 -38 -14 -20 0
-261 -38 -14 -21 0
-261 -39 -14 -21 0
-261 -37 -24 -29 0
-261 -37 -24 -30 0
-261 -37 -24 -31 0
-261 -38 -24 -30 0
-261 -38 -24 -31 0
-261 -39 -24 -31 0
-261 -37 -25 -29 0
-261 -37 -25 -30 0
-261 -37 -25 -31 0
-261 -38 -25 -30 0
-261 -38 -25 -31 0
-261 -39 -25 -31 0
-261 44 0
-261 -37 49 0
-261 -38 50 0
-261 -39 51 0
-261 -82 0
-262 11 0
-262 -40 0
-262 -4 -37 -8 0
-262 -4 -38 -9 0
-262 -4 -39 -10 0
-262 -33 0
-262 -37 -15 -19 0
-262 -37 -15 -20 0
-262 -37 -15 -21 0
-262 -38 -15 -20 0
-262 -38 -15 -21 0
-262 -39 -15 -21 0
-262 -37 -25 -29 0
-262 -37 -25 -30 0
-262 -37 -25 -31 0
-262 -38 -25 -30 0
-262 -38 -25 -31 0
-262 -39 -25 -31 0
-262 -37 -26 -29 0
-262 -37 -26 -30 0
-262 -37 -26 -31 0
-262 -38 -26 -30 0
-262 -38 -26 -31 0
-262 -39 -26 -31 0
-262 45 0
-262 -37 49 0
-262 -38 50 0
-262 -39 51 0
-262 -82 0
-263 11 0
-263 -40 0
-263 -5 -37 -8 0
-263 -5 -38 -9 0
-263 -5 -39 -10 0
-263 -33 0
-263 -34 0
-263 -37 -16 -19 0
-263 -37 -16 -20 0
-263 -37 -16 -21 0
-263 -38 -16 -20 0
-263 -38 -16 -21 0
-263 -39 -16 -21 0
-263 -37 -26 -29 0
-263 -37 -26 -30 0
-263 -37 -26 -31 0
-263 -38 -26 -30 0
-263 -38 -26 -31 0
-263 -39 -26 -31 0
-263 -37 -27 -29 0
-263 -37 -27 -30 0
-263 -37 -27 -31 0
-263 -38 -27 -30 0
-263 -38 -27 -31 0
-263 -39 -27 -31 0
-263 46 0
-263 -37 49 0
-263 -38 50 0
-263 -39 51 0
-263 -82 0
-264 11 0
-264 -40 0
-264 -6 -37 -8 0
-264 -6 -38 -9 0
-264 -6 -39 -10 0
-264 -33 0
-264 -34 0
-264 -35 0
-264 -37 -17 -19 0
-264 -37 -17 -20 0
-264 -37 -17 -21 0
-264 -38 -17 -20 0
-264 -38 -17 -21 0
-264 -39 -17 -21 0
-264 -37 -27 -29 0
-264 -37 -27 -30 0
-264 -37 -27 -31 0
-264 -38 -27 -30 0
-264 -38 -27 -31 0
-264 -39 -27 -31 0
-264 47 0
-264 -37 49 0
-264 -38 50 0
-264 -39 51 0
-264 -82 0
-265 11 0
-265 -1 -7 0
-265 -12 -18 0
-265 -12 -19 0
-265 -12 -20 0
-265 -12 -21 0
-265 -23 -28 0
-265 -23 -29 0
-265 -23 -30 0
-265 -23 -31 0
-265 -33 -37 0
-265 -33 -38 0
-265 -33 -39 0
-265 -33 -40 0
-265 42 0
-265 48 0
-266 11 0
-266 -2 -7 0
-266 -13 -18 0
-266 -13 -19 0
-266 -13 -20 0
-266 -13 -21 0
-266 -23 -28 0
-266 -23 -29 0
-266 -23 -30 0
-266 -23 -31 0
-266 -24 -28 0
-266 -24 -29 0
-266 -24 -30 0
-266 -24 -31 0
-266 -33 -37 0
-266 -33 -38 0
-266 -33 -39 0
-266 -33 -40 0
-266 -34 -37 0
-266 -34 -38 0
-266 -34 -39 0
-266 -34 -40 0
-266 43 0
-266 48 0
-267 11 0
-267 -3 -7 0
-267 -14 -18 0
-267 -14 -19 0
-267 -14 -20 0
-267 -14 -21 0
-267 -24 -28 0
-267 -24 -29 0
-267 -24 -30 0
-267 -24 -31 0
-267 -25 -28 0
-267 -25 -29 0
-267 -25 -30 0
-267 -25 -31 0
-267 -33 -37 0
-267 -33 -38 0
-267 -33 -39 0
-267 -33 -40 0
-267 -34 -37 0
-267 -34 -38 0
-267 -34 -39 0
-267 -34 -40 0
-267 -35 -37 0
-267 -35 -38 0
-267 -35 -39 0
-267 -35 -40 0
-267 44 0
-267 48 0
-268 11 0
-268 -4 -7 0
-268 -15 -18 0
-268 -15 -19 0
-268 -15 -20 0
-268 -15 -21 0
-268 -25 -28 0
-268 -25 -29 0
-268 -25 -30 0
-268 -25 -31 0
-268 -26 -28 0
-268 -26 -29 0
-268 -26 -30 0
-268 -26 -31 0
-268 -34 -37 0
-268 -34 -38 0
-268 -34 -39 0
-268 -34 -40 0
-268 -35 -37 0
-268 -35 -38 0
-268 -35 -39 0
-268 -35 -40 0
-268 -36 -37 0
-268 -36 -38 0
-268 -36 -39 0
-268 -36 -40 0
-268 45 0
-268 48 0
-269 11 0
-269 -5 -7 0
-269 -16 -18 0
-269 -16 -19 0
-269 -16 -20 0
-269 -16 -21 0
-269 -26 -28 0
-269 -26 -29 0
-269 -26 -30 0
-269 -26 -31 0
-269 -27 -28 0
-269 -27 -29 0
-269 -27 -30 0
-269 -27 -31 0
-269 -35 -37 0
-269 -35 -38 0
-269 -35 -39 0
-269 -35 -40 0
-269 -36 -37 0
-269 -36 -38 0
-269 -36 -39 0
-269 -36 -40 0
-269 46 0
-269 48 0
-270 11 0
-270 -6 -7 0
-270 -17 -18 0
-270 -17 -19 0
-270 -17 -20 0
-270 -17 -21 0
-270 -27 -28 0
-270 -27 -29 0
-270 -27 -30 0
-270 -27 -31 0
-270 -36 -37 0
-270 -36 -38 0
-270 -36 -39 0
-270 -36 -40 0
-270 47 0
-270 48 0
-271 22 0
-271 -10 0
-271 -12 -7 -19 0
-271 -12 -8 -20 0
-271 -12 -9 -21 0
-271 -2 0
-271 -3 0
-271 -4 0
-271 -5 0
-271 -6 0
-271 -7 -23 -29 0
-271 -7 -23 -30 0
-271 -7 -23 -31 0
-271 -8 -23 -30 0
-271 -8 -23 -31 0
-271 -9 -23 -31 0
-271 -7 -33 -38 0
-271 -7 -33 -39 0
-271 -7 -33 -40 0
-271 -8 -33 -39 0
-271 -8 -33 -40 0
-271 -9 -33 -40 0
-271 53 0
-271 -7 60 0
-271 -8 61 0
-271 -9 62 0
-271 -52 0
-272 22 0
-272 -10 0
-272 -13 -7 -19 0
-272 -13 -8 -20 0
-272 -13 -9 -21 0
-272 -1 0
-272 -3 0
-272 -4 0
-272 -5 0
-272 -6 0
-272 -7 -23 -29 0
-272 -7 -23 -30 0
-272 -7 -23 -31 0
-272 -8 -23 -30 0
-272 -8 -23 -31 0
-272 -9 -23 -31 0
-272 -7 -24 -29 0
-272 -7 -24 -30 0
-272 -7 -24 -31 0
-272 -8 -24 -30 0
-272 -8 -24 -31 0
-272 -9 -24 -31 0
-272 -7 -33 -38 0
-272 -7 -33 -39 0
-272 -7 -33 -40 0
-272 -8 -33 -39 0
-272 -8 -33 -40 0
-272 -9 -33 -40 0
-272 -7 -34 -38 0
-272 -7 -34 -39 0
-272 -7 -34 -40 0
-272 -8 -34 -39 0
-272 -8 -34 -40 0
-272 -9 -34 -40 0
-272 54 0
-272 -7 60 0
-272 -8 61 0
-272 -9 62 0
-272 -52 0
-273 22 0
-273 -10 0
-273 -14 -7 -19 0
-273 -14 -8 -20 0
-273 -14 -9 -21 0
-273 -1 0
-273 -2 0
-273 -4 0
-273 -5 0
-273 -6 0
-273 -7 -24 -29 0
-273 -7 -24 -30 0
-273 -7 -24 -31 0
-273 -8 -24 -30 0
-273 -8 -24 -31 0
-273 -9 -24 -31 0
-273 -7 -25 -29 0
-273 -7 -25 -30 0
-273 -7 -25 -31 0
-273 -8 -25 -30 0
-273 -8 -25 -31 0
-273 -9 -25 -31 0
-273 -7 -33 -38 0
-273 -7 -33 -39 0
-273 -7 -33 -40 0
-273 -8 -33 -39 0
-273 -8 -33 -40 0
-273 -9 -33 -40 0
-273 -7 -34 -38 0
-273 -7 -34 -39 0
-273 -7 -34 -40 0
-273 -8 -34 -39 0
-273 -8 -34 -40 0
-273 -9 -34 -40 0
-273 -7 -35 -38 0
-273 -7 -35 -39 0
-273 -7 -35 -40 0
-273 -8 -35 -39 0
-273 -8 -35 -40 0
-273 -9 -35 -40 0
-273 55 0
-273 -7 60 0
-273 -8 61 0
-273 -9 62 0
-273 -52 0
-274 22 0
-274 -10 0
-274 -15 -7 -19 0
-274 -15 -8 -20 0
-274 -15 -9 -21 0
-274 -1 0
-274 -2 0
-274 -3 0
-274 -5 0
-274 -6 0
-274 -7 -25 -29 0
-274 -7 -25 -30 0
-274 -7 -25 -31 0
-274 -8 -25 -30 0
-274 -8 -25 -31 0
-274 -9 -25 -31 0
-274 -7 -26 -29 0
-274 -7 -26 -30 0
-274 -7 -26 -31 0
-274 -8 -26 -30 0
-274 -8 -26 -31 0
-274 -9 -26 -31 0
-274 -7 -34 -38 0
-274 -7 -34 -39 0
-274 -7 -34 -40 0
-274 -8 -34 -39 0
-274 -8 -34 -40 0
-274 -9 -34 -40 0
-274 -7 -35 -38 0
-274 -7 -35 -39 0
-274 -7 -35 -40 0
-274 -8 -35 -39 0
-274 -8 -35 -40 0
-274 -9 -35 -40 0
-274 -7 -36 -38 0
-274 -7 -36 -39 0
-274 -7 -36 -40 0
-274 -8 -36 -39 0
-274 -8 -36 -40 0
-274 -9 -36 -40 0
-274 56 0
-274 -7 60 0
-274 -8 61 0
-274 -9 62 0
-274 -52 0
-275 22 0
-275 -10 0
-275 -16 -7 -19 0
-275 -16 -8 -20 0
-275 -16 -9 -21 0
-275 -1 0
-275 -2 0
-275 -3 0
-275 -4 0
-275 -6 0
-275 -7 -26 -29 0
-275 -7 -26 -30 0
-275 -7 -26 -31 0
-275 -8 -26 -30 0
-275 -8 -26 -31 0
-275 -9 -26 -31 0
-275 -7 -27 -29 0
-275 -7 -27 -30 0
-275 -7 -27 -31 0
-275 -8 -27 -30 0
-275 -8 -27 -31 0
-275 -9 -27 -31 0
-275 -7 -35 -38 0
-275 -7 -35 -39 0
-275 -7 -35 -40 0
-275 -8 -35 -39 0
-275 -8 -35 -40 0
-275 -9 -35 -40 0
-275 -7 -36 -38 0
-275 -7 -36 -39 0
-275 -7 -36 -40 0
-275 -8 -36 -39 0
-275 -8 -36 -40 0
-275 -9 -36 -40 0
-275 57 0
-275 -7 60 0
-275 -8 61 0
-275 -9 62 0
-275 -52 0
-276 22 0
-276 -10 0
-276 -17 -7 -19 0
-276 -17 -8 -20 0
-276 -17 -9 -21 0
-276 -1 0
-276 -2 0
-276 -3 0
-276 -4 0
-276 -5 0
-276 -7 -27 -29 0
-276 -7 -27 -30 0
-276 -7 -27 -31 0
-276 -8 -27 -30 0
-276 -8 -27 -31 0
-276 -9 -27 -31 0
-276 -7 -36 -38 0
-276 -7 -36 -39 0
-276 -7 -36 -40 0
-276 -8 -36 -39 0
-276 -8 -36 -40 0
-276 -9 -36 -40 0
-276 58 0
-276 -7 60 0
-276 -8 61 0
-276 -9 62 0
-276 -52 0
-277 22 0
-277 -31 0
-277 -12 -28 -19 0
-277 -12 -29 -20 0
-277 -12 -30 -21 0
-277 -24 0
-277 -25 0
-277 -26 0
-277 -27 0
-277 -28 -1 -8 0
-277 -28 -1 -9 0
-277 -28 -1 -10 0
-277 -29 -1 -9 0
-277 -29 -1 -10 0
-277 -30 -1 -10 0
-277 -28 -33 -38 0
-277 -28 -33 -39 0
-277 -28 -33 -40 0
-277 -29 -33 -39 0
-277 -29 -33 -40 0
-277 -30 -33 -40 0
-277 53 0
-277 -28 60 0
-277 -29 61 0
-277 -30 62 0
-277 -73 0
-278 22 0
-278 -31 0
-278 -13 -28 -19 0
-278 -13 -29 -20 0
-278 -13 -30 -21 0
-278 -25 0
-278 -26 0
-278 -27 0
-278 -28 -2 -8 0
-278 -28 -2 -9 0
-278 -28 -2 -10 0
-278 -29 -2 -9 0
-278 -29 -2 -10 0
-278 -30 -2 -10 0
-278 -28 -33 -38 0
-278 -28 -33 -39 0
-278 -28 -33 -40 0
-278 -29 -33 -39 0
-278 -29 -33 -40 0
-278 -30 -33 -40 0
-278 -28 -34 -38 0
-278 -28 -34 -39 0
-278 -28 -34 -40 0
-278 -29 -34 -39 0
-278 -29 -34 -40 0
-278 -30 -34 -40 0
-278 54 0
-278 -28 60 0
-278 -29 61 0
-278 -30 62 0
-278 -73 0
-279 22 0
-279 -31 0
-279 -14 -28 -19 0
-279 -14 -29 -20 0
-279 -14 -30 -21 0
-279 -23 0
-279 -26 0
-279 -27 0
-279 -28 -3 -8 0
-279 -28 -3 -9 0
-279 -28 -3 -10 0
-279 -29 -3 -9 0
-279 -29 -3 -10 0
-279 -30 -3 -10 0
-279 -28 -33 -38 0
-279 -28 -33 -39 0
-279 -28 -33 -40 0
-279 -29 -33 -39 0
-279 -29 -33 -40 0
-279 -30 -33 -40 0
-279 -28 -34 -38 0
-279 -28 -34 -39 0
-279 -28 -34 -40 0
-279 -29 -34 -39 0
-279 -29 -34 -40 0
-279 -30 -34 -40 0
-279 -28 -35 -38 0
-279 -28 -35 -39 0
-279 -28 -35 -40 0
-279 -29 -35 -39 0
-279 -29 -35 -40 0
-279 -30 -35 -40 0
-279 55 0
-279 -28 60 0
-279 -29 61 0
-279 -30 62 0
-279 -73 0
-280 22 0
-280 -31 0
-280 -15 -28 -19 0
-280 -15 -29 -20 0
-280 -15 -30 -21 0
-280 -23 0
-280 -24 0
-280 -27 0
-280 -28 -4 -8 0
-280 -28 -4 -9 0
-280 -28 -4 -10 0
-280 -29 -4 -9 0
-280 -29 -4 -10 0
-280 -30 -4 -10 0
-280 -28 -34 -38 0
-280 -28 -34 -39 0
-280 -28 -34 -40 0
-280 -29 -34 -39 0
-280 -29 -34 -40 0
-280 -30 -34 -40 0
-280 -28 -35 -38 0
-280 -28 -35 -39 0
-280 -28 -35 -40 0
-280 -29 -35 -39 0
-280 -29 -35 -40 0
-280 -30 -35 -40 0
-280 -28 -36 -38 0
-280 -28 -36 -39 0
-280 -28 -36 -40 0
-280 -29 -36 -39 0
-280 -29 -36 -40 0
-280 -30 -36 -40 0
-280 56 0
-280 -28 60 0
-280 -29 61 0
-280 -30 62 0
-280 -73 0
-281 22 0
-281 -31 0
-281 -16 -28 -19 0
-281 -16 -29 -20 0
-281 -16 -30 -21 0
-281 -23 0
-281 -24 0
-281 -25 0
-281 -28 -5 -8 0
-281 -28 -5 -9 0
-281 -28 -5 -10 0
-281 -29 -5 -9 0
-281 -29 -5 -10 0
-281 -30 -5 -10 0
-281 -28 -35 -38 0
-281 -28 -35 -39 0
-281 -28 -35 -40 0
-281 -29 -35 -39 0
-281 -29 -35 -40 0
-281 -30 -35 -40 0
-281 -28 -36 -38 0
-281 -28 -36 -39 0
-281 -28 -36 -40 0
-281 -29 -36 -39 0
-281 -29 -36 -40 0
-281 -30 -36 -40 0
-281 57 0
-281 -28 60 0
-281 -29 61 0
-281 -30 62 0
-281 -73 0
-282 22 0
-282 -31 0
-282 -17 -28 -19 0
-282 -17 -29 -20 0
-282 -17 -30 -21 0
-282 -23 0
-282 -24 0
-282 -25 0
-282 -26 0
-282 -28 -6 -8 0
-282 -28 -6 -9 0
-282 -28 -6 -10 0
-282 -29 -6 -9 0
-282 -29 -6 -10 0
-282 -30 -6 -10 0
-282 -28 -36 -38 0
-282 -28 -36 -39 0
-282 -28 -36 -40 0
-282 -29 -36 -39 0
-282 -29 -36 -40 0
-282 -30 -36 -40 0
-282 58 0
-282 -28 60 0
-282 -29 61 0
-282 -30 62 0
-282 -73 0
-283 22 0
-283 -40 0
-283 -12 -37 -19 0
-283 -12 -38 -20 0
-283 -12 -39 -21 0
-283 -34 0
-283 -35 0
-283 -36 0
-283 -37 -1 -8 0
-283 -37 -1 -9 0
-283 -37 -1 -10 0
-283 -38 -1 -9 0
-283 -38 -1 -10 0
-283 -39 -1 -10 0
-283 -37 -23 -29 0
-283 -37 -23 -30 0
-283 -37 -23 -31 0
-283 -38 -23 -30 0
-283 -38 -23 -31 0
-283 -39 -23 -31 0
-283 53 0
-283 -37 60 0
-283 -38 61 0
-283 -39 62 0
-283 -82 0
-284 22 0
-284 -40 0
-284 -13 -37 -19 0
-284 -13 -38 -20 0
-284 -13 -39 -21 0
-284 -35 0
-284 -36 0
-284 -37 -2 -8 0
-284 -37 -2 -9 0
-284 -37 -2 -10 0
-284 -38 -2 -9 0
-284 -38 -2 -10 0
-284 -39 -2 -10 0
-284 -37 -23 -29 0
-284 -37 -23 -30 0
-284 -37 -23 -31 0
-284 -38 -23 -30 0
-284 -38 -23 -31 0
-284 -39 -23 -31 0
-284 -37 -24 -29 0
-284 -37 -24 -30 0
-284 -37 -24 -31 0
-284 -38 -24 -30 0
-284 -38 -24 -31 0
-284 -39 -24 -31 0
-284 54 0
-284 -37 60 0
-284 -38 61 0
-284 -39 62 0
-284 -82 0
-285 22 0
-285 -40 0
-285 -14 -37 -19 0
-285 -14 -38 -20 0
-285 -14 -39 -21 0
-285 -36 0
-285 -37 -3 -8 0
-285 -37 -3 -9 0
-285 -37 -3 -10 0
-285 -38 -3 -9 0
-285 -38 -3 -10 0
-285 -39 -3 -10 0
-285 -37 -24 -29 0
-285 -37 -24 -30 0
-285 -37 -24 -31 0
-285 -38 -24 -30 0
-285 -38 -24 -31 0
-285 -39 -24 -31 0
-285 -37 -25 -29 0
-285 -37 -25 -30 0
-285 -37 -25 -31 0
-285 -38 -25 -30 0
-285 -38 -25 -31 0
-285 -39 -25 -31 0
-285 55 0
-285 -37 60 0
-285 -38 61 0
-285 -39 62 0
-285 -82 0
-286 22 0
-286 -40 0
-286 -15 -37 -19 0
-286 -15 -38 -20 0
-286 -15 -39 -21 0
-286 -33 0
-286 -37 -4 -8 0
-286 -37 -4 -9 0
-286 -37 -4 -10 0
-286 -38 -4 -9 0
-286 -38 -4 -10 0
-286 -39 -4 -10 0
-286 -37 -25 -29 0
-286 -37 -25 -30 0
-286 -37 -25 -31 0
-286 -38 -25 -30 0
-286 -38 -25 -31 0
-286 -39 -25 -31 0
-286 -37 -26 -29 0
-286 -37 -26 -30 0
-286 -37 -26 -31 0
-286 -38 -26 -30 0
-286 -38 -26 -31 0
-286 -39 -26 -31 0
-286 56 0
-286 -37 60 0
-286 -38 61 0
-286 -39 62 0
-286 -82 0
-287 22 0
-287 -40 0
-287 -16 -37 -19 0
-287 -16 -38 -20 0
-287 -16 -39 -21 0
-287 -33 0
-287 -34 0
-287 -37 -5 -8 0
-287 -37 -5 -9 0
-287 -37 -5 -10 0
-287 -38 -5 -9 0
-287 -38 -5 -10 0
-287 -39 -5 -10 0
-287 -37 -26 -29 0
-287 -37 -26 -30 0
-287 -37 -26 -31 0
-287 -38 -26 -30 0
-287 -38 -26 -31 0
-287 -39 -26 -31 0
-287 -37 -27 -29 0
-287 -37 -27 -30 0
-287 -37 -27 -31 0
-287 -38 -27 -30 0
-287 -38 -27 -31 0
-287 -39 -27 -31 0
-287 57 0
-287 -37 60 0
-287 -38 61 0
-287 -39 62 0
-287 -82 0
-288 22 0
-288 -40 0
-288 -17 -37 -19 0
-288 -17 -38 -20 0
-288 -17 -39 -21 0
-288 -33 0
-288 -34 0
-288 -35 0
-288 -37 -6 -8 0
-288 -37 -6 -9 0
-288 -37 -6 -10 0
-288 -38 -6 -9 0
-288 -38 -6 -10 0
-288 -39 -6 -10 0
-288 -37 -27 -29 0
-288 -37 -27 -30 0
-288 -37 -27 -31 0
-288 -38 -27 -30 0
-288 -38 -27 -31 0
-288 -39 -27 -31 0
-288 58 0
-288 -37 60 0
-288 -38 61 0
-288 -39 62 0
-288 -82 0
-289 22 0
-289 -12 -18 0
-289 -1 -7 0
-289 -1 -8 0
-289 -1 -9 0
-289 -1 -10 0
-289 -23 -28 0
-289 -23 -29 0
-289 -23 -30 0
-289 -23 -31 0
-289 -33 -37 0
-289 -33 -38 0
-289 -33 -39 0
-289 -33 -40 0
-289 53 0
-289 59 0
-290 22 0
-290 -13 -18 0
-290 -2 -7 0
-290 -2 -8 0
-290 -2 -9 0
-290 -2 -10 0
-290 -23 -28 0
-290 -23 -29 0
-290 -23 -30 0
-290 -23 -31 0
-290 -24 -28 0
-290 -24 -29 0
-290 -24 -30 0
-290 -24 -31 0
-290 -33 -37 0
-290 -33 -38 0
-290 -33 -39 0
-290 -33 -40 0
-290 -34 -37 0
-290 -34 -38 0
-290 -34 -39 0
-290 -34 -40 0
-290 54 0
-290 59 0
-291 22 0
-291 -14 -18 0
-291 -3 -7 0
-291 -3 -8 0
-291 -3 -9 0
-291 -3 -10 0
-291 -24 -28 0
-291 -24 -29 0
-291 -24 -30 0
-291 -24 -31 0
-291 -25 -28 0
-291 -25 -29 0
-291 -25 -30 0
-291 -25 -31 0
-291 -33 -37 0
-291 -33 -38 0
-291 -33 -39 0
-291 -33 -40 0
-291 -34 -37 0
-291 -34 -38 0
-291 -34 -39 0
-291 -34 -40 0
-291 -35 -37 0
-291 -35 -38 0
-291 -35 -39 0
-291 -35 -40 0
-291 55 0
-291 59 0
-292 22 0
-292 -15 -18 0
-292 -4 -7 0
-292 -4 -8 0
-292 -4 -9 0
-292 -4 -10 0
-292 -25 -28 0
-292 -25 -29 0
-292 -25 -30 0
-292 -25 -31 0
-292 -26 -28 0
-292 -26 -29 0
-292 -26 -30 0
-292 -26 -31 0
-292 -34 -37 0
-292 -34 -38 0
-292 -34 -39 0
-292 -34 -40 0
-292 -35 -37 0
-292 -35 -38 0
-292 -35 -39 0
-292 -35 -40 0
-292 -36 -37 0
-292 -36 -38 0
-292 -36 -39 0
-292 -36 -40 0
-292 56 0
-292 59 0
-293 22 0
-293 -16 -18 0
-293 -5 -7 0
-293 -5 -8 0
-293 -5 -9 0
-293 -5 -10 0
-293 -26 -28 0
-293 -26 -29 0
-293 -26 -30 0
-293 -26 -31 0
-293 -27 -28 0
-293 -27 -29 0
-293 -27 -30 0
-293 -27 -31 0
-293 -35 -37 0
-293 -35 -38 0
-293 -35 -39 0
-293 -35 -40 0
-293 -36 -37 0
-293 -36 -38 0
-293 -36 -39 0
-293 -36 -40 0
-293 57 0
-293 59 0
-294 22 0
-294 -17 -18 0
-294 -6 -7 0
-294 -6 -8 0
-294 -6 -9 0
-294 -6 -10 0
-294 -27 -28 0
-294 -27 -29 0
-294 -27 -30 0
-294 -27 -31 0
-294 -36 -37 0
-294 -36 -38 0
-294 -36 -39 0
-294 -36 -40 0
-294 58 0
-294 59 0
-295 32 0
-295 -10 0
-295 -23 -7 -29 0
-295 -23 -8 -30 0
-295 -23 -9 -31 0
-295 -3 0
-295 -4 0
-295 -5 0
-295 -6 0
-295 -7 -12 -19 0
-295 -7 -12 -20 0
-295 -7 -12 -21 0
-295 -8 -12 -20 0
-295 -8 -12 -21 0
-295 -9 -12 -21 0
-295 -7 -13 -19 0
-295 -7 -13 -20 0
-295 -7 -13 -21 0
-295 -8 -13 -20 0
-295 -8 -13 -21 0
-295 -9 -13 -21 0
-295 -7 -33 -38 0
-295 -7 -33 -39 0
-295 -7 -33 -40 0
-295 -8 -33 -39 0
-295 -8 -33 -40 0
-295 -9 -33 -40 0
-295 -7 -34 -38 0
-295 -7 -34 -39 0
-295 -7 -34 -40 0
-295 -8 -34 -39 0
-295 -8 -34 -40 0
-295 -9 -34 -40 0
-295 64 0
-295 -7 70 0
-295 -8 71 0
-295 -9 72 0
-295 -52 0
-296 32 0
-296 -10 0
-296 -24 -7 -29 0
-296 -24 -8 -30 0
-296 -24 -9 -31 0
-296 -1 0
-296 -4 0
-296 -5 0
-296 -6 0
-296 -7 -13 -19 0
-296 -7 -13 -20 0
-296 -7 -13 -21 0
-296 -8 -13 -20 0
-296 -8 -13 -21 0
-296 -9 -13 -21 0
-296 -7 -14 -19 0
-296 -7 -14 -20 0
-296 -7 -14 -21 0
-296 -8 -14 -20 0
-296 -8 -14 -21 0
-296 -9 -14 -21 0
-296 -7 -33 -38 0
-296 -7 -33 -39 0
-296 -7 -33 -40 0
-296 -8 -33 -39 0
-296 -8 -33 -40 0
-296 -9 -33 -40 0
-296 -7 -34 -38 0
-296 -7 -34 -39 0
-296 -7 -34 -40 0
-296 -8 -34 -39 0
-296 -8 -34 -40 0
-296 -9 -34 -40 0
-296 -7 -35 -38 0
-296 -7 -35 -39 0
-296 -7 -35 -40 0
-296 -8 -35 -39 0
-296 -8 -35 -40 0
-296 -9 -35 -40 0
-296 65 0
-296 -7 70 0
-296 -8 71 0
-296 -9 72 0
-296 -52 0
-297 32 0
-297 -10 0
-297 -25 -7 -29 0
-297 -25 -8 -30 0
-297 -25 -9 -31 0
-297 -1 0
-297 -2 0
-297 -5 0
-297 -6 0
-297 -7 -14 -19 0
-297 -7 -14 -20 0
-297 -7 -14 -21 0
-297 -8 -14 -20 0
-297 -8 -14 -21 0
-297 -9 -14 -21 0
-297 -7 -15 -19 0
-297 -7 -15 -20 0
-297 -7 -15 -21 0
-297 -8 -15 -20 0
-297 -8 -15 -21 0
-297 -9 -15 -21 0
-297 -7 -33 -38 0
-297 -7 -33 -39 0
-297 -7 -33 -40 0
-297 -8 -33 -39 0
-297 -8 -33 -40 0
-297 -9 -33 -40 0
-297 -7 -34 -38 0
-297 -7 -34 -39 0
-297 -7 -34 -40 0
-297 -8 -34 -39 0
-297 -8 -34 -40 0
-297 -9 -34 -40 0
-297 -7 -35 -38 0
-297 -7 -35 -39 0
-297 -7 -35 -40 0
-297 -8 -35 -39 0
-297 -8 -35 -40 0
-297 -9 -35 -40 0
-297 -7 -36 -38 0
-297 -7 -36 -39 0
-297 -7 -36 -40 0
-297 -8 -36 -39 0
-297 -8 -36 -40 0
-297 -9 -36 -40 0
-297 66 0
-297 -7 70 0
-297 -8 71 0
-297 -9 72 0
-297 -52 0
-298 32 0
-298 -10 0
-298 -26 -7 -29 0
-298 -26 -8 -30 0
-298 -26 -9 -31 0
-298 -1 0
-298 -2 0
-298 -3 0
-298 -6 0
-298 -7 -15 -19 0
-298 -7 -15 -20 0
-298 -7 -15 -21 0
-298 -8 -15 -20 0
-298 -8 -15 -21 0
-298 -9 -15 -21 0
-298 -7 -16 -19 0
-298 -7 -16 -20 0
-298 -7 -16 -21 0
-298 -8 -16 -20 0
-298 -8 -16 -21 0
-298 -9 -16 -21 0
-298 -7 -34 -38 0
-298 -7 -34 -39 0
-298 -7 -34 -40 0
-298 -8 -34 -39 0
-298 -8 -34 -40 0
-298 -9 -34 -40 0
-298 -7 -35 -38 0
-298 -7 -35 -39 0
-298 -7 -35 -40 0
-298 -8 -35 -39 0
-298 -8 -35 -40 0
-298 -9 -35 -40 0
-298 -7 -36 -38 0
-298 -7 -36 -39 0
-298 -7 -36 -40 0
-298 -8 -36 -39 0
-298 -8 -36 -40 0
-298 -9 -36 -40 0
-298 67 0
-298 -7 70 0
-298 -8 71 0
-298 -9 72 0
-298 -52 0
-299 32 0
-299 -10 0
-299 -27 -7 -29 0
-299 -27 -8 -30 0
-299 -27 -9 -31 0
-299 -1 0
-299 -2 0
-299 -3 0
-299 -4 0
-299 -7 -16 -19 0
-299 -7 -16 -20 0
-299 -7 -16 -21 0
-299 -8 -16 -20 0
-299 -8 -16 -21 0
-299 -9 -16 -21 0
-299 -7 -17 -19 0
-299 -7 -17 -20 0
-299 -7 -17 -21 0
-299 -8 -17 -20 0
-299 -8 -17 -21 0
-299 -9 -17 -21 0
-299 -7 -35 -38 0
-299 -7 -35 -39 0
-299 -7 -35 -40 0
-299 -8 -35 -39 0
-299 -8 -35 -40 0
-299 -9 -35 -40 0
-299 -7 -36 -38 0
-299 -7 -36 -39 0
-299 -7 -36 -40 0
-299 -8 -36 -39 0
-299 -8 -36 -40 0
-299 -9 -36 -40 0
-299 68 0
-299 -7 70 0
-299 -8 71 0
-299 -9 72 0
-299 -52 0
-300 32 0
-300 -21 0
-300 -23 -18 -29 0
-300 -23 -19 -30 0
-300 -23 -20 -31 0
-300 -14 0
-300 -15 0
-300 -16 0
-300 -17 0
-300 -18 -1 -8 0
-300 -18 -1 -9 0
-300 -18 -1 -10 0
-300 -19 -1 -9 0
-300 -19 -1 -10 0
-300 -20 -1 -10 0
-300 -18 -2 -8 0
-300 -18 -2 -9 0
-300 -18 -2 -10 0
-300 -19 -2 -9 0
-300 -19 -2 -10 0
-300 -20 -2 -10 0
-300 -18 -33 -38 0
-300 -18 -33 -39 0
-300 -18 -33 -40 0
-300 -19 -33 -39 0
-300 -19 -33 -40 0
-300 -20 -33 -40 0
-300 -18 -34 -38 0
-300 -18 -34 -39 0
-300 -18 -34 -40 0
-300 -19 -34 -39 0
-300 -19 -34 -40 0
-300 -20 -34 -40 0
-300 64 0
-300 -18 70 0
-300 -19 71 0
-300 -20 72 0
-300 -63 0
-301 32 0
-301 -21 0
-301 -24 -18 -29 0
-301 -24 -19 -30 0
-301 -24 -20 -31 0
-301 -12 0
-301 -15 0
-301 -16 0
-301 -17 0
-301 -18 -2 -8 0
-301 -18 -2 -9 0
-301 -18 -2 -10 0
-301 -19 -2 -9 0
-301 -19 -2 -10 0
-301 -20 -2 -10 0
-301 -18 -3 -8 0
-301 -18 -3 -9 0
-301 -18 -3 -10 0
-301 -19 -3 -9 0
-301 -19 -3 -10 0
-301 -20 -3 -10 0
-301 -18 -33 -38 0
-301 -18 -33 -39 0
-301 -18 -33 -40 0
-301 -19 -33 -39 0
-301 -19 -33 -40 0
-301 -20 -33 -40 0
-301 -18 -34 -38 0
-301 -18 -34 -39 0
-301 -18 -34 -40 0
-301 -19 -34 -39 0
-301 -19 -34 -40 0
-301 -20 -34 -40 0
-301 -18 -35 -38 0
-301 -18 -35 -39 0
-301 -18 -35 -40 0
-301 -19 -35 -39 0
-301 -19 -35 -40 0
-301 -20 -35 -40 0
-301 65 0
-301 -18 70 0
-301 -19 71 0
-301 -20 72 0
-301 -63 0
-302 32 0
-302 -21 0
-302 -25 -18 -29 0
-302 -25 -19 -30 0
-302 -25 -20 -31 0
-302 -12 0
-302 -13 0
-302 -16 0
-302 -17 0
-302 -18 -3 -8 0
-302 -18 -3 -9 0
-302 -18 -3 -10 0
-302 -19 -3 -9 0
-302 -19 -3 -10 0
-302 -20 -3 -10 0
-302 -18 -4 -8 0
-302 -18 -4 -9 0
-302 -18 -4 -10 0
-302 -19 -4 -9 0
-302 -19 -4 -10 0
-302 -20 -4 -10 0
-302 -18 -33 -38 0
-302 -18 -33 -39 0
-302 -18 -33 -40 0
-302 -19 -33 -39 0
-302 -19 -33 -40 0
-302 -20 -33 -40 0
-302 -18 -34 -38 0
-302 -18 -34 -39 0
-302 -18 -34 -40 0
-302 -19 -34 -39 0
-302 -19 -34 -40 0
-302 -20 -34 -40 0
-302 -18 -35 -38 0
-302 -18 -35 -39 0
-302 -18 -35 -40 0
-302 -19 -35 -39 0
-302 -19 -35 -40 0
-302 -20 -35 -40 0
-302 -18 -36 -38 0
-302 -18 -36 -39 0
-302 -18 -36 -40 0
-302 -19 -36 -39 0
-302 -19 -36 -40 0
-302 -20 -36 -40 0
-302 66 0
-302 -18 70 0
-302 -19 71 0
-302 -20 72 0
-302 -63 0
-303 32 0
-303 -21 0
-303 -26 -18 -29 0
-303 -26 -19 -30 0
-303 -26 -20 -31 0
-303 -12 0
-303 -13 0
-303 -14 0
-303 -17 0
-303 -18 -4 -8 0
-303 -18 -4 -9 0
-303 -18 -4 -10 0
-303 -19 -4 -9 0
-303 -19 -4 -10 0
-303 -20 -4 -10 0
-303 -18 -5 -8 0
-303 -18 -5 -9 0
-303 -18 -5 -10 0
-303 -19 -5 -9 0
-303 -19 -5 -10 0
-303 -20 -5 -10 0
-303 -18 -34 -38 0
-303 -18 -34 -39 0
-303 -18 -34 -40 0
-303 -19 -34 -39 0
-303 -19 -34 -40 0
-303 -20 -34 -40 0
-303 -18 -35 -38 0
-303 -18 -35 -39 0
-303 -18 -35 -40 0
-303 -19 -35 -39 0
-303 -19 -35 -40 0
-303 -20 -35 -40 0
-303 -18 -36 -38 0
-303 -18 -36 -39 0
-303 -18 -36 -40 0
-303 -19 -36 -39 0
-303 -19 -36 -40 0
-303 -20 -36 -40 0
-303 67 0
-303 -18 70 0
-303 -19 71 0
-303 -20 72 0
-303 -63 0
-304 32 0
-304 -21 0
-304 -27 -18 -29 0
-304 -27 -19 -30 0
-304 -27 -20 -31 0
-304 -12 0
-304 -13 0
-304 -14 0
-304 -15 0
-304 -18 -5 -8 0
-304 -18 -5 -9 0
-304 -18 -5 -10 0
-304 -19 -5 -9 0
-304 -19 -5 -10 0
-304 -20 -5 -10 0
-304 -18 -6 -8 0
-304 -18 -6 -9 0
-304 -18 -6 -10 0
-304 -19 -6 -9 0
-304 -19 -6 -10 0
-304 -20 -6 -10 0
-304 -18 -35 -38 0
-304 -18 -35 -39 0
-304 -18 -35 -40 0
-304 -19 -35 -39 0
-304 -19 -35 -40 0
-304 -20 -35 -40 0
-304 -18 -36 -38 0
-304 -18 -36 -39 0
-304 -18 -36 -40 0
-304 -19 -36 -39 0
-304 -19 -36 -40 0
-304 -20 -36 -40 0
-304 68 0
-304 -18 70 0
-304 -19 71 0
-304 -20 72 0
-304 -63 0
-305 32 0
-305 -40 0
-305 -23 -37 -29 0
-305 -23 -38 -30 0
-305 -23 -39 -31 0
-305 -35 0
-305 -36 0
-305 -37 -1 -8 0
-305 -37 -1 -9 0
-305 -37 -1 -10 0
-305 -38 -1 -9 0
-305 -38 -1 -10 0
-305 -39 -1 -10 0
-305 -37 -2 -8 0
-305 -37 -2 -9 0
-305 -37 -2 -10 0
-305 -38 -2 -9 0
-305 -38 -2 -10 0
-305 -39 -2 -10 0
-305 -37 -12 -19 0
-305 -37 -12 -20 0
-305 -37 -12 -21 0
-305 -38 -12 -20 0
-305 -38 -12 -21 0
-305 -39 -12 -21 0
-305 -37 -13 -19 0
-305 -37 -13 -20 0
-305 -37 -13 -21 0
-305 -38 -13 -20 0
-305 -38 -13 -21 0
-305 -39 -13 -21 0
-305 64 0
-305 -37 70 0
-305 -38 71 0
-305 -39 72 0
-305 -82 0
-306 32 0
-306 -40 0
-306 -24 -37 -29 0
-306 -24 -38 -30 0
-306 -24 -39 -31 0
-306 -36 0
-306 -37 -2 -8 0
-306 -37 -2 -9 0
-306 -37 -2 -10 0
-306 -38 -2 -9 0
-306 -38 -2 -10 0
-306 -39 -2 -10 0
-306 -37 -3 -8 0
-306 -37 -3 -9 0
-306 -37 -3 -10 0
-306 -38 -3 -9 0
-306 -38 -3 -10 0
-306 -39 -3 -10 0
-306 -37 -13 -19 0
-306 -37 -13 -20 0
-306 -37 -13 -21 0
-306 -38 -13 -20 0
-306 -38 -13 -21 0
-306 -39 -13 -21 0
-306 -37 -14 -19 0
-306 -37 -14 -20 0
-306 -37 -14 -21 0
-306 -38 -14 -20 0
-306 -38 -14 -21 0
-306 -39 -14 -21 0
-306 65 0
-306 -37 70 0
-306 -38 71 0
-306 -39 72 0
-306 -82 0
-307 32 0
-307 -40 0
-307 -25 -37 -29 0
-307 -25 -38 -30 0
-307 -25 -39 -31 0
-307 -37 -3 -8 0
-307 -37 -3 -9 0
-307 -37 -3 -10 0
-307 -38 -3 -9 0
-307 -38 -3 -10 0
-307 -39 -3 -10 0
-307 -37 -4 -8 0
-307 -37 -4 -9 0
-307 -37 -4 -10 0
-307 -38 -4 -9 0
-307 -38 -4 -10 0
-307 -39 -4 -10 0
-307 -37 -14 -19 0
-307 -37 -14 -20 0
-307 -37 -14 -21 0
-307 -38 -14 -20 0
-307 -38 -14 -21 0
-307 -39 -14 -21 0
-307 -37 -15 -19 0
-307 -37 -15 -20 0
-307 -37 -15 -21 0
-307 -38 -15 -20 0
-307 -38 -15 -21 0
-307 -39 -15 -21 0
-307 66 0
-307 -37 70 0
-307 -38 71 0
-307 -39 72 0
-307 -82 0
-308 32 0
-308 -40 0
-308 -26 -37 -29 0
-308 -26 -38 -30 0
-308 -26 -39 -31 0
-308 -33 0
-308 -37 -4 -8 0
-308 -37 -4 -9 0
-308 -37 -4 -10 0
-308 -38 -4 -9 0
-308 -38 -4 -10 0
-308 -39 -4 -10 0
-308 -37 -5 -8 0
-308 -37 -5 -9 0
-308 -37 -5 -10 0
-308 -38 -5 -9 0
-308 -38 -5 -10 0
-308 -39 -5 -10 0
-308 -37 -15 -19 0
-308 -37 -15 -20 0
-308 -37 -15 -21 0
-308 -38 -15 -20 0
-308 -38 -15 -21 0
-308 -39 -15 -21 0
-308 -37 -16 -19 0
-308 -37 -16 -20 0
-308 -37 -16 -21 0
-308 -38 -16 -20 0
-308 -38 -16 -21 0
-308 -39 -16 -21 0
-308 67 0
-308 -37 70 0
-308 -38 71 0
-308 -39 72 0
-308 -82 0
-309 32 0
-309 -40 0
-309 -27 -37 -29 0
-309 -27 -38 -30 0
-309 -27 -39 -31 0
-309 -33 0
-309 -34 0
-309 -37 -5 -8 0
-309 -37 -5 -9 0
-309 -37 -5 -10 0
-309 -38 -5 -9 0
-309 -38 -5 -10 0
-309 -39 -5 -10 0
-309 -37 -6 -8 0
-309 -37 -6 -9 0
-309 -37 -6 -10 0
-309 -38 -6 -9 0
-309 -38 -6 -10 0
-309 -39 -6 -10 0
-309 -37 -16 -19 0
-309 -37 -16 -20 0
-309 -37 -16 -21 0
-309 -38 -16 -20 0
-309 -38 -16 -21 0
-309 -39 -16 -21 0
-309 -37 -17 -19 0
-309 -37 -17 -20 0
-309 -37 -17 -21 0
-309 -38 -17 -20 0
-309 -38 -17 -21 0
-309 -39 -17 -21 0
-309 68 0
-309 -37 70 0
-309 -38 71 0
-309 -39 72 0
-309 -82 0
-310 32 0
-310 -23 -28 0
-310 -1 -7 0
-310 -1 -8 0
-310 -1 -9 0
-310 -1 -10 0
-310 -2 -7 0
-310 -2 -8 0
-310 -2 -9 0
-310 -2 -10 0
-310 -12 -18 0
-310 -12 -19 0
-310 -12 -20 0
-310 -12 -21 0
-310 -13 -18 0
-310 -13 -19 0
-310 -13 -20 0
-310 -13 -21 0
-310 -33 -37 0
-310 -33 -38 0
-310 -33 -39 0
-310 -33 -40 0
-310 -34 -37 0
-310 -34 -38 0
-310 -34 -39 0
-310 -34 -40 0
-310 64 0
-310 69 0
-311 32 0
-311 -24 -28 0
-311 -2 -7 0
-311 -2 -8 0
-311 -2 -9 0
-311 -2 -10 0
-311 -3 -7 0
-311 -3 -8 0
-311 -3 -9 0
-311 -3 -10 0
-311 -13 -18 0
-311 -13 -19 0
-311 -13 -20 0
-311 -13 -21 0
-311 -14 -18 0
-311 -14 -19 0
-311 -14 -20 0
-311 -14 -21 0
-311 -33 -37 0
-311 -33 -38 0
-311 -33 -39 0
-311 -33 -40 0
-311 -34 -37 0
-311 -34 -38 0
-311 -34 -39 0
-311 -34 -40 0
-311 -35 -37 0
-311 -35 -38 0
-311 -35 -39 0
-311 -35 -40 0
-311 65 0
-311 69 0
-312 32 0
-312 -25 -28 0
-312 -3 -7 0
-312 -3 -8 0
-312 -3 -9 0
-312 -3 -10 0
-312 -4 -7 0
-312 -4 -8 0
-312 -4 -9 0
-312 -4 -10 0
-312 -14 -18 0
-312 -14 -19 0
-312 -14 -20 0
-312 -14 -21 0
-312 -15 -18 0
-312 -15 -19 0
-312 -15 -20 0
-312 -15 -21 0
-312 -33 -37 0
-312 -33 -38 0
-312 -33 -39 0
-312 -33 -40 0
-312 -34 -37 0
-312 -34 -38 0
-312 -34 -39 0
-312 -34 -40 0
-312 -35 -37 0
-312 -35 -38 0
-312 -35 -39 0
-312 -35 -40 0
-312 -36 -37 0
-312 -36 -38 0
-312 -36 -39 0
-312 -36 -40 0
-312 66 0
-312 69 0
-313 32 0
-313 -26 -28 0
-313 -4 -7 0
-313 -4 -8 0
-313 -4 -9 0
-313 -4 -10 0
-313 -5 -7 0
-313 -5 -8 0
-313 -5 -9 0
-313 -5 -10 0
-313 -15 -18 0
-313 -15 -19 0
-313 -15 -20 0
-313 -15 -21 0
-313 -16 -18 0
-313 -16 -19 0
-313 -16 -20 0
-313 -16 -21 0
-313 -34 -37 0
-313 -34 -38 0
-313 -34 -39 0
-313 -34 -40 0
-313 -35 -37 0
-313 -35 -38 0
-313 -35 -39 0
-313 -35 -40 0
-313 -36 -37 0
-313 -36 -38 0
-313 -36 -39 0
-313 -36 -40 0
-313 67 0
-313 69 0
-314 32 0
-314 -27 -28 0
-314 -5 -7 0
-314 -5 -8 0
-314 -5 -9 0
-314 -5 -10 0
-314 -6 -7 0
-314 -6 -8 0
-314 -6 -9 0
-314 -6 -10 0
-314 -16 -18 0
-314 -16 -19 0
-314 -16 -20 0
-314 -16 -21 0
-314 -17 -18 0
-314 -17 -19 0
-314 -17 -20 0
-314 -17 -21 0
-314 -35 -37 0
-314 -35 -38 0
-314 -35 -39 0
-314 -35 -40 0
-314 -36 -37 0
-314 -36 -38 0
-314 -36 -39 0
-314 -36 -40 0
-314 68 0
-314 69 0
-315 41 0
-315 -10 0
-315 -33 -7 -38 0
-315 -33 -8 -39 0
-315 -33 -9 -40 0
-315 -4 0
-315 -5 0
-315 -6 0
-315 -7 -12 -19 0
-315 -7 -12 -20 0
-315 -7 -12 -21 0
-315 -8 -12 -20 0
-315 -8 -12 -21 0
-315 -9 -12 -21 0
-315 -7 -13 -19 0
-315 -7 -13 -20 0
-315 -7 -13 -21 0
-315 -8 -13 -20 0
-315 -8 -13 -21 0
-315 -9 -13 -21 0
-315 -7 -14 -19 0
-315 -7 -14 -20 0
-315 -7 -14 -21 0
-315 -8 -14 -20 0
-315 -8 -14 -21 0
-315 -9 -14 -21 0
-315 -7 -23 -29 0
-315 -7 -23 -30 0
-315 -7 -23 -31 0
-315 -8 -23 -30 0
-315 -8 -23 -31 0
-315 -9 -23 -31 0
-315 -7 -24 -29 0
-315 -7 -24 -30 0
-315 -7 -24 -31 0
-315 -8 -24 -30 0
-315 -8 -24 -31 0
-315 -9 -24 -31 0
-315 -7 -25 -29 0
-315 -7 -25 -30 0
-315 -7 -25 -31 0
-315 -8 -25 -30 0
-315 -8 -25 -31 0
-315 -9 -25 -31 0
-315 74 0
-315 -7 79 0
-315 -8 80 0
-315 -9 81 0
-315 -52 0
-316 41 0
-316 -10 0
-316 -34 -7 -38 0
-316 -34 -8 -39 0
-316 -34 -9 -40 0
-316 -1 0
-316 -5 0
-316 -6 0
-316 -7 -13 -19 0
-316 -7 -13 -20 0
-316 -7 -13 -21 0
-316 -8 -13 -20 0
-316 -8 -13 -21 0
-316 -9 -13 -21 0
-316 -7 -14 -19 0
-316 -7 -14 -20 0
-316 -7 -14 -21 0
-316 -8 -14 -20 0
-316 -8 -14 -21 0
-316 -9 -14 -21 0
-316 -7 -15 -19 0
-316 -7 -15 -20 0
-316 -7 -15 -21 0
-316 -8 -15 -20 0
-316 -8 -15 -21 0
-316 -9 -15 -21 0
-316 -7 -23 -29 0
-316 -7 -23 -30 0
-316 -7 -23 -31 0
-316 -8 -23 -30 0
-316 -8 -23 -31 0
-316 -9 -23 -31 0
-316 -7 -24 -29 0
-316 -7 -24 -30 0
-316 -7 -24 -31 0
-316 -8 -24 -30 0
-316 -8 -24 -31 0
-316 -9 -24 -31 0
-316 -7 -25 -29 0
-316 -7 -25 -30 0
-316 -7 -25 -31 0
-316 -8 -25 -30 0
-316 -8 -25 -31 0
-316 -9 -25 -31 0
-316 -7 -26 -29 0
-316 -7 -26 -30 0
-316 -7 -26 -31 0
-316 -8 -26 -30 0
-316 -8 -26 -31 0
-316 -9 -26 -31 0
-316 75 0
-316 -7 79 0
-316 -8 80 0
-316 -9 81 0
-316 -52 0
-317 41 0
-317 -10 0
-317 -35 -7 -38 0
-317 -35 -8 -39 0
-317 -35 -9 -40 0
-317 -1 0
-317 -2 0
-317 -6 0
-317 -7 -14 -19 0
-317 -7 -14 -20 0
-317 -7 -14 -21 0
-317 -8 -14 -20 0
-317 -8 -14 -21 0
-317 -9 -14 -21 0
-317 -7 -15 -19 0
-317 -7 -15 -20 0
-317 -7 -15 -21 0
-317 -8 -15 -20 0
-317 -8 -15 -21 0
-317 -9 -15 -21 0
-317 -7 -16 -19 0
-317 -7 -16 -20 0
-317 -7 -16 -21 0
-317 -8 -16 -20 0
-317 -8 -16 -21 0
-317 -9 -16 -21 0
-317 -7 -24 -29 0
-317 -7 -24 -30 0
-317 -7 -24 -31 0
-317 -8 -24 -30 0
-317 -8 -24 -31 0
-317 -9 -24 -31 0
-317 -7 -25 -29 0
-317 -7 -25 -30 0
-317 -7 -25 -31 0
-317 -8 -25 -30 0
-317 -8 -25 -31 0
-317 -9 -25 -31 0
-317 -7 -26 -29 0
-317 -7 -26 -30 0
-317 -7 -26 -31 0
-317 -8 -26 -30 0
-317 -8 -26 -31 0
-317 -9 -26 -31 0
-317 -7 -27 -29 0
-317 -7 -27 -30 0
-317 -7 -27 -31 0
-317 -8 -27 -30 0
-317 -8 -27 -31 0
-317 -9 -27 -31 0
-317 76 0
-317 -7 79 0
-317 -8 80 0
-317 -9 81 0
-317 -52 0
-318 41 0
-318 -10 0
-318 -36 -7 -38 0
-318 -36 -8 -39 0
-318 -36 -9 -40 0
-318 -1 0
-318 -2 0
-318 -3 0
-318 -7 -15 -19 0
-318 -7 -15 -20 0
-318 -7 -15 -21 0
-318 -8 -15 -20 0
-318 -8 -15 -21 0
-318 -9 -15 -21 0
-318 -7 -16 -19 0
-318 -7 -16 -20 0
-318 -7 -16 -21 0
-318 -8 -16 -20 0
-318 -8 -16 -21 0
-318 -9 -16 -21 0
-318 -7 -17 -19 0
-318 -7 -17 -20 0
-318 -7 -17 -21 0
-318 -8 -17 -20 0
-318 -8 -17 -21 0
-318 -9 -17 -21 0
-318 -7 -25 -29 0
-318 -7 -25 -30 0
-318 -7 -25 -31 0
-318 -8 -25 -30 0
-318 -8 -25 -31 0
-318 -9 -25 -31 0
-318 -7 -26 -29 0
-318 -7 -26 -30 0
-318 -7 -26 -31 0
-318 -8 -26 -30 0
-318 -8 -26 -31 0
-318 -9 -26 -31 0
-318 -7 -27 -29 0
-318 -7 -27 -30 0
-318 -7 -27 -31 0
-318 -8 -27 -30 0
-318 -8 -27 -31 0
-318 -9 -27 -31 0
-318 77 0
-318 -7 79 0
-318 -8 80 0
-318 -9 81 0
-318 -52 0
-319 41 0
-319 -21 0
-319 -33 -18 -38 0
-319 -33 -19 -39 0
-319 -33 -20 -40 0
-319 -15 0
-319 -16 0
-319 -17 0
-319 -18 -1 -8 0
-319 -18 -1 -9 0
-319 -18 -1 -10 0
-319 -19 -1 -9 0
-319 -19 -1 -10 0
-319 -20 -1 -10 0
-319 -18 -2 -8 0
-319 -18 -2 -9 0
-319 -18 -2 -10 0
-319 -19 -2 -9 0
-319 -19 -2 -10 0
-319 -20 -2 -10 0
-319 -18 -3 -8 0
-319 -18 -3 -9 0
-319 -18 -3 -10 0
-319 -19 -3 -9 0
-319 -19 -3 -10 0
-319 -20 -3 -10 0
-319 -18 -23 -29 0
-319 -18 -23 -30 0
-319 -18 -23 -31 0
-319 -19 -23 -30 0
-319 -19 -23 -31 0
-319 -20 -23 -31 0
-319 -18 -24 -29 0
-319 -18 -24 -30 0
-319 -18 -24 -31 0
-319 -19 -24 -30 0
-319 -19 -24 -31 0
-319 -20 -24 -31 0
-319 -18 -25 -29 0
-319 -18 -25 -30 0
-319 -18 -25 -31 0
-319 -19 -25 -30 0
-319 -19 -25 -31 0
-319 -20 -25 -31 0
-319 74 0
-319 -18 79 0
-319 -19 80 0
-319 -20 81 0
-319 -63 0
-320 41 0
-320 -21 0
-320 -34 -18 -38 0
-320 -34 -19 -39 0
-320 -34 -20 -40 0
-320 -12 0
-320 -16 0
-320 -17 0
-320 -18 -2 -8 0
-320 -18 -2 -9 0
-320 -18 -2 -10 0
-320 -19 -2 -9 0
-320 -19 -2 -10 0
-320 -20 -2 -10 0
-320 -18 -3 -8 0
-320 -18 -3 -9 0
-320 -18 -3 -10 0
-320 -19 -3 -9 0
-320 -19 -3 -10 0
-320 -20 -3 -10 0
-320 -18 -4 -8 0
-320 -18 -4 -9 0
-320 -18 -4 -10 0
-320 -19 -4 -9 0
-320 -19 -4 -10 0
-320 -20 -4 -10 0
-320 -18 -23 -29 0
-320 -18 -23 -30 0
-320 -18 -23 -31 0
-320 -19 -23 -30 0
-320 -19 -23 -31 0
-320 -20 -23 -31 0
-320 -18 -24 -29 0
-320 -18 -24 -30 0
-320 -18 -24 -31 0
-320 -19 -24 -30 0
-320 -19 -24 -31 0
-320 -20 -24 -31 0
-320 -18 -25 -29 0
-320 -18 -25 -30 0
-320 -18 -25 -31 0
-320 -19 -25 -30 0
-320 -19 -25 -31 0
-320 -20 -25 -31 0
-320 -18 -26 -29 0
-320 -18 -26 -30 0
-320 -18 -26 -31 0
-320 -19 -26 -30 0
-320 -19 -26 -31 0
-320 -20 -26 -31 0
-320 75 0
-320 -18 79 0
-320 -19 80 0
-320 -20 81 0
-320 -63 0
-321 41 0
-321 -21 0
-321 -35 -18 -38 0
-321 -35 -19 -39 0
-321 -35 -20 -40 0
-321 -12 0
-321 -13 0
-321 -17 0
-321 -18 -3 -8 0
-321 -18 -3 -9 0
-321 -18 -3 -10 0
-321 -19 -3 -9 0
-321 -19 -3 -10 0
-321 -20 -3 -10 0
-321 -18 -4 -8 0
-321 -18 -4 -9 0
-321 -18 -4 -10 0
-321 -19 -4 -9 0
-321 -19 -4 -10 0
-321 -20 -4 -10 0
-321 -18 -5 -8 0
-321 -18 -5 -9 0
-321 -18 -5 -10 0
-321 -19 -5 -9 0
-321 -19 -5 -10 0
-321 -20 -5 -10 0
-321 -18 -24 -29 0
-321 -18 -24 -30 0
-321 -18 -24 -31 0
-321 -19 -24 -30 0
-321 -19 -24 -31 0
-321 -20 -24 -31 0
-321 -18 -25 -29 0
-321 -18 -25 -30 0
-321 -18 -25 -31 0
-321 -19 -25 -30 0
-321 -19 -25 -31 0
-321 -20 -25 -31 0
-321 -18 -26 -29 0
-321 -18 -26 -30 0
-321 -18 -26 -31 0
-321 -19 -26 -30 0
-321 -19 -26 -31 0
-321 -20 -26 -31 0
-321 -18 -27 -29 0
-321 -18 -27 -30 0
-321 -18 -27 -31 0
-321 -19 -27 -30 0
-321 -19 -27 -31 0
-321 -20 -27 -31 0
-321 76 0
-321 -18 79 0
-321 -19 80 0
-321 -20 81 0
-321 -63 0
-322 41 0
-322 -21 0
-322 -36 -18 -38 0
-322 -36 -19 -39 0
-322 -36 -20 -40 0
-322 -12 0
-322 -13 0
-322 -14 0
-322 -18 -4 -8 0
-322 -18 -4 -9 0
-322 -18 -4 -10 0
-322 -19 -4 -9 0
-322 -19 -4 -10 0
-322 -20 -4 -10 0
-322 -18 -5 -8 0
-322 -18 -5 -9 0
-322 -18 -5 -10 0
-322 -19 -5 -9 0
-322 -19 -5 -10 0
-322 -20 -5 -10 0
-322 -18 -6 -8 0
-322 -18 -6 -9 0
-322 -18 -6 -10 0
-322 -19 -6 -9 0
-322 -19 -6 -10 0
-322 -20 -6 -10 0
-322 -18 -25 -29 0
-322 -18 -25 -30 0
-322 -18 -25 -31 0
-322 -19 -25 -30 0
-322 -19 -25 -31 0
-322 -20 -25 -31 0
-322 -18 -26 -29 0
-322 -18 -26 -30 0
-322 -18 -26 -31 0
-322 -19 -26 -30 0
-322 -19 -26 -31 0
-322 -20 -26 -31 0
-322 -18 -27 -29 0
-322 -18 -27 -30 0
-322 -18 -27 -31 0
-322 -19 -27 -30 0
-322 -19 -27 -31 0
-322 -20 -27 -31 0
-322 77 0
-322 -18 79 0
-322 -19 80 0
-322 -20 81 0
-322 -63 0
-323 41 0
-323 -31 0
-323 -33 -28 -38 0
-323 -33 -29 -39 0
-323 -33 -30 -40 0
-323 -26 0
-323 -27 0
-323 -28 -1 -8 0
-323 -28 -1 -9 0
-323 -28 -1 -10 0
-323 -29 -1 -9 0
-323 -29 -1 -10 0
-323 -30 -1 -10 0
-323 -28 -2 -8 0
-323 -28 -2 -9 0
-323 -28 -2 -10 0
-323 -29 -2 -9 0
-323 -29 -2 -10 0
-323 -30 -2 -10 0
-323 -28 -3 -8 0
-323 -28 -3 -9 0
-323 -28 -3 -10 0
-323 -29 -3 -9 0
-323 -29 -3 -10 0
-323 -30 -3 -10 0
-323 -28 -12 -19 0
-323 -28 -12 -20 0
-323 -28 -12 -21 0
-323 -29 -12 -20 0
-323 -29 -12 -21 0
-323 -30 -12 -21 0
-323 -28 -13 -19 0
-323 -28 -13 -20 0
-323 -28 -13 -21 0
-323 -29 -13 -20 0
-323 -29 -13 -21 0
-323 -30 -13 -21 0
-323 -28 -14 -19 0
-323 -28 -14 -20 0
-323 -28 -14 -21 0
-323 -29 -14 -20 0
-323 -29 -14 -21 0
-323 -30 -14 -21 0
-323 74 0
-323 -28 79 0
-323 -29 80 0
-323 -30 81 0
-323 -73 0
-324 41 0
-324 -31 0
-324 -34 -28 -38 0
-324 -34 -29 -39 0
-324 -34 -30 -40 0
-324 -27 0
-324 -28 -2 -8 0
-324 -28 -2 -9 0
-324 -28 -2 -10 0
-324 -29 -2 -9 0
-324 -29 -2 -10 0
-324 -30 -2 -10 0
-324 -28 -3 -8 0
-324 -28 -3 -9 0
-324 -28 -3 -10 0
-324 -29 -3 -9 0
-324 -29 -3 -10 0
-324 -30 -3 -10 0
-324 -28 -4 -8 0
-324 -28 -4 -9 0
-324 -28 -4 -10 0
-324 -29 -4 -9 0
-324 -29 -4 -10 0
-324 -30 -4 -10 0
-324 -28 -13 -19 0
-324 -28 -13 -20 0
-324 -28 -13 -21 0
-324 -29 -13 -20 0
-324 -29 -13 -21 0
-324 -30 -13 -21 0
-324 -28 -14 -19 0
-324 -28 -14 -20 0
-324 -28 -14 -21 0
-324 -29 -14 -20 0
-324 -29 -14 -21 0
-324 -30 -14 -21 0
-324 -28 -15 -19 0
-324 -28 -15 -20 0
-324 -28 -15 -21 0
-324 -29 -15 -20 0
-324 -29 -15 -21 0
-324 -30 -15 -21 0
-324 75 0
-324 -28 79 0
-324 -29 80 0
-324 -30 81 0
-324 -73 0
-325 41 0
-325 -31 0
-325 -35 -28 -38 0
-325 -35 -29 -39 0
-325 -35 -30 -40 0
-325 -23 0
-325 -28 -3 -8 0
-325 -28 -3 -9 0
-325 -28 -3 -10 0
-325 -29 -3 -9 0
-325 -29 -3 -10 0
-325 -30 -3 -10 0
-325 -28 -4 -8 0
-325 -28 -4 -9 0
-325 -28 -4 -10 0
-325 -29 -4 -9 0
-325 -29 -4 -10 0
-325 -30 -4 -10 0
-325 -28 -5 -8 0
-325 -28 -5 -9 0
-325 -28 -5 -10 0
-325 -29 -5 -9 0
-325 -29 -5 -10 0
-325 -30 -5 -10 0
-325 -28 -14 -19 0
-325 -28 -14 -20 0
-325 -28 -14 -21 0
-325 -29 -14 -20 0
-325 -29 -14 -21 0
-325 -30 -14 -21 0
-325 -28 -15 -19 0
-325 -28 -15 -20 0
-325 -28 -15 -21 0
-325 -29 -15 -20 0
-325 -29 -15 -21 0
-325 -30 -15 -21 0
-325 -28 -16 -19 0
-325 -28 -16 -20 0
-325 -28 -16 -21 0
-325 -29 -16 -20 0
-325 -29 -16 -21 0
-325 -30 -16 -21 0
-325 76 0
-325 -28 79 0
-325 -29 80 0
-325 -30 81 0
-325 -73 0
-326 41 0
-326 -31 0
-326 -36 -28 -38 0
-326 -36 -29 -39 0
-326 -36 -30 -40 0
-326 -23 0
-326 -24 0
-326 -28 -4 -8 0
-326 -28 -4 -9 0
-326 -28 -4 -10 0
-326 -29 -4 -9 0
-326 -29 -4 -10 0
-326 -30 -4 -10 0
-326 -28 -5 -8 0
-326 -28 -5 -9 0
-326 -28 -5 -10 0
-326 -29 -5 -9 0
-326 -29 -5 -10 0
-326 -30 -5 -10 0
-326 -28 -6 -8 0
-326 -28 -6 -9 0
-326 -28 -6 -10 0
-326 -29 -6 -9 0
-326 -29 -6 -10 0
-326 -30 -6 -10 0
-326 -28 -15 -19 0
-326 -28 -15 -20 0
-326 -28 -15 -21 0
-326 -29 -15 -20 0
-326 -29 -15 -21 0
-326 -30 -15 -21 0
-326 -28 -16 -19 0
-326 -28 -16 -20 0
-326 -28 -16 -21 0
-326 -29 -16 -20 0
-326 -29 -16 -21 0
-326 -30 -16 -21 0
-326 -28 -17 -19 0
-326 -28 -17 -20 0
-326 -28 -17 -21 0
-326 -29 -17 -20 0
-326 -29 -17 -21 0
-326 -30 -17 -21 0
-326 77 0
-326 -28 79 0
-326 -29 80 0
-326 -30 81 0
-326 -73 0
-327 41 0
-327 -33 -37 0
-327 -1 -7 0
-327 -1 -8 0
-327 -1 -9 0
-327 -1 -10 0
-327 -2 -7 0
-327 -2 -8 0
-327 -2 -9 0
-327 -2 -10 0
-327 -3 -7 0
-327 -3 -8 0
-327 -3 -9 0
-327 -3 -10 0
-327 -12 -18 0
-327 -12 -19 0
-327 -12 -20 0
-327 -12 -21 0
-327 -13 -18 0
-327 -13 -19 0
-327 -13 -20 0
-327 -13 -21 0
-327 -14 -18 0
-327 -14 -19 0
-327 -14 -20 0
-327 -14 -21 0
-327 -23 -28 0
-327 -23 -29 0
-327 -23 -30 0
-327 -23 -31 0
-327 -24 -28 0
-327 -24 -29 0
-327 -24 -30 0
-327 -24 -31 0
-327 -25 -28 0
-327 -25 -29 0
-327 -25 -30 0
-327 -25 -31 0
-327 74 0
-327 78 0
-328 41 0
-328 -34 -37 0
-328 -2 -7 0
-328 -2 -8 0
-328 -2 -9 0
-328 -2 -10 0
-328 -3 -7 0
-328 -3 -8 0
-328 -3 -9 0
-328 -3 -10 0
-328 -4 -7 0
-328 -4 -8 0
-328 -4 -9 0
-328 -4 -10 0
-328 -13 -18 0
-328 -13 -19 0
-328 -13 -20 0
-328 -13 -21 0
-328 -14 -18 0
-328 -14 -19 0
-328 -14 -20 0
-328 -14 -21 0
-328 -15 -18 0
-328 -15 -19 0
-328 -15 -20 0
-328 -15 -21 0
-328 -23 -28 0
-328 -23 -29 0
-328 -23 -30 0
-328 -23 -31 0
-328 -24 -28 0
-328 -24 -29 0
-328 -24 -30 0
-328 -24 -31 0
-328 -25 -28 0
-328 -25 -29 0
-328 -25 -30 0
-328 -25 -31 0
-328 -26 -28 0
-328 -26 -29 0
-328 -26 -30 0
-328 -26 -31 0
-328 75 0
-328 78 0
-329 41 0
-329 -35 -37 0
-329 -3 -7 0
-329 -3 -8 0
-329 -3 -9 0
-329 -3 -10 0
-329 -4 -7 0
-329 -4 -8 0
-329 -4 -9 0
-329 -4 -10 0
-329 -5 -7 0
-329 -5 -8 0
-329 -5 -9 0
-329 -5 -10 0
-329 -14 -18 0
-329 -14 -19 0
-329 -14 -20 0
-329 -14 -21 0
-329 -15 -18 0
-329 -15 -19 0
-329 -15 -20 0
-329 -15 -21 0
-329 -16 -18 0
-329 -16 -19 0
-329 -16 -20 0
-329 -16 -21 0
-329 -24 -28 0
-329 -24 -29 0
-329 -24 -30 0
-329 -24 -31 0
-329 -25 -28 0
-329 -25 -29 0
-329 -25 -30 0
-329 -25 -31 0
-329 -26 -28 0
-329 -26 -29 0
-329 -26 -30 0
-329 -26 -31 0
-329 -27 -28 0
-329 -27 -29 0
-329 -27 -30 0
-329 -27 -31 0
-329 76 0
-329 78 0
-330 41 0
-330 -36 -37 0
-330 -4 -7 0
-330 -4 -8 0
-330 -4 -9 0
-330 -4 -10 0
-330 -5 -7 0
-330 -5 -8 0
-330 -5 -9 0
-330 -5 -10 0
-330 -6 -7 0
-330 -6 -8 0
-330 -6 -9 0
-330 -6 -10 0
-330 -15 -18 0
-330 -15 -19 0
-330 -15 -20 0
-330 -15 -21 0
-330 -16 -18 0
-330 -16 -19 0
-330 -16 -20 0
-330 -16 -21 0
-330 -17 -18 0
-330 -17 -19 0
-330 -17 -20 0
-330 -17 -21 0
-330 -25 -28 0
-330 -25 -29 0
-330 -25 -30 0
-330 -25 -31 0
-330 -26 -28 0
-330 -26 -29 0
-330 -26 -30 0
-330 -26 -31 0
-330 -27 -28 0
-330 -27 -29 0
-330 -27 -30 0
-330 -27 -31 0
-330 77 0
-330 78 0
-331 52 0
-331 -62 0
-331 -42 -59 -49 0
-331 -42 -60 -50 0
-331 -42 -61 -51 0
-331 -54 0
-331 -55 0
-331 -56 0
-331 -57 0
-331 -58 0
-331 -59 -64 -70 0
-331 -59 -64 -71 0
-331 -59 -64 -72 0
-331 -60 -64 -71 0
-331 -60 -64 -72 0
-331 -61 -64 -72 0
-331 -59 -74 -79 0
-331 -59 -74 -80 0
-331 -59 -74 -81 0
-331 -60 -74 -80 0
-331 -60 -74 -81 0
-331 -61 -74 -81 0
-331 83 0
-331 -59 90 0
-331 -60 91 0
-331 -61 92 0
-331 -104 0
-332 52 0
-332 -62 0
-332 -43 -59 -49 0
-332 -43 -60 -50 0
-332 -43 -61 -51 0
-332 -53 0
-332 -55 0
-332 -56 0
-332 -57 0
-332 -58 0
-332 -59 -64 -70 0
-332 -59 -64 -71 0
-332 -59 -64 -72 0
-332 -60 -64 -71 0
-332 -60 -64 -72 0
-332 -61 -64 -72 0
-332 -59 -65 -70 0
-332 -59 -65 -71 0
-332 -59 -65 -72 0
-332 -60 -65 -71 0
-332 -60 -65 -72 0
-332 -61 -65 -72 0
-332 -59 -74 -79 0
-332 -59 -74 -80 0
-332 -59 -74 -81 0
-332 -60 -74 -80 0
-332 -60 -74 -81 0
-332 -61 -74 -81 0
-332 -59 -75 -79 0
-332 -59 -75 -80 0
-332 -59 -75 -81 0
-332 -60 -75 -80 0
-332 -60 -75 -81 0
-332 -61 -75 -81 0
-332 84 0
-332 -59 90 0
-332 -60 91 0
-332 -61 92 0
-332 -104 0
-333 52 0
-333 -62 0
-333 -44 -59 -49 0
-333 -44 -60 -50 0
-333 -44 -61 -51 0
-333 -53 0
-333 -54 0
-333 -56 0
-333 -57 0
-333 -58 0
-333 -59 -65 -70 0
-333 -59 -65 -71 0
-333 -59 -65 -72 0
-333 -60 -65 -71 0
-333 -60 -65 -72 0
-333 -61 -65 -72 0
-333 -59 -66 -70 0
-333 -59 -66 -71 0
-333 -59 -66 -72 0
-333 -60 -66 -71 0
-333 -60 -66 -72 0
-333 -61 -66 -72 0
-333 -59 -74 -79 0
-333 -59 -74 -80 0
-333 -59 -74 -81 0
-333 -60 -74 -80 0
-333 -60 -74 -81 0
-333 -61 -74 -81 0
-333 -59 -75 -79 0
-333 -59 -75 -80 0
-333 -59 -75 -81 0
-333 -60 -75 -80 0
-333 -60 -75 -81 0
-333 -61 -75 -81 0
-333 -59 -76 -79 0
-333 -59 -76 -80 0
-333 -59 -76 -81 0
-333 -60 -76 -80 0
-333 -60 -76 -81 0
-333 -61 -76 -81 0
-333 85 0
-333 -59 90 0
-333 -60 91 0
-333 -61 92 0
-333 -104 0
-334 52 0
-334 -62 0
-334 -45 -59 -49 0
-334 -45 -60 -50 0
-334 -45 -61 -51 0
-334 -53 0
-334 -54 0
-334 -55 0
-334 -57 0
-334 -58 0
-334 -59 -66 -70 0
-334 -59 -66 -71 0
-334 -59 -66 -72 0
-334 -60 -66 -71 0
-334 -60 -66 -72 0
-334 -61 -66 -72 0
-334 -59 -67 -70 0
-334 -59 -67 -71 0
-334 -59 -67 -72 0
-334 -60 -67 -71 0
-334 -60 -67 -72 0
-334 -61 -67 -72 0
-334 -59 -75 -79 0
-334 -59 -75 -80 0
-334 -59 -75 -81 0
-334 -60 -75 -80 0
-334 -60 -75 -81 0
-334 -61 -75 -81 0
-334 -59 -76 -79 0
-334 -59 -76 -80 0
-334 -59 -76 -81 0
-334 -60 -76 -80 0
-334 -60 -76 -81 0
-334 -61 -76 -81 0
-334 -59 -77 -79 0
-334 -59 -77 -80 0
-334 -59 -77 -81 0
-334 -60 -77 -80 0
-334 -60 -77 -81 0
-334 -61 -77 -81 0
-334 86 0
-334 -59 90 0
-334 -60 91 0
-334 -61 92 0
-334 -104 0
-335 52 0
-335 -62 0
-335 -46 -59 -49 0
-335 -46 -60 -50 0
-335 -46 -61 -51 0
-335 -53 0
-335 -54 0
-335 -55 0
-335 -56 0
-335 -58 0
-335 -59 -67 -70 0
-335 -59 -67 -71 0
-335 -59 -67 -72 0
-335 -60 -67 -71 0
-335 -60 -67 -72 0
-335 -61 -67 -72 0
-335 -59 -68 -70 0
-335 -59 -68 -71 0
-335 -59 -68 -72 0
-335 -60 -68 -71 0
-335 -60 -68 -72 0
-335 -61 -68 -72 0
-335 -59 -76 -79 0
-335 -59 -76 -80 0
-335 -59 -76 -81 0
-335 -60 -76 -80 0
-335 -60 -76 -81 0
-335 -61 -76 -81 0
-335 -59 -77 -79 0
-335 -59 -77 -80 0
-335 -59 -77 -81 0
-335 -60 -77 -80 0
-335 -60 -77 -81 0
-335 -61 -77 -81 0
-335 87 0
-335 -59 90 0
-335 -60 91 0
-335 -61 92 0
-335 -104 0
-336 52 0
-336 -62 0
-336 -47 -59 -49 0
-336 -47 -60 -50 0
-336 -47 -61 -51 0
-336 -53 0
-336 -54 0
-336 -55 0
-336 -56 0
-336 -57 0
-336 -59 -68 -70 0
-336 -59 -68 -71 0
-336 -59 -68 -72 0
-336 -60 -68 -71 0
-336 -60 -68 -72 0
-336 -61 -68 -72 0
-336 -59 -77 -79 0
-336 -59 -77 -80 0
-336 -59 -77 -81 0
-336 -60 -77 -80 0
-336 -60 -77 -81 0
-336 -61 -77 -81 0
-336 88 0
-336 -59 90 0
-336 -60 91 0
-336 -61 92 0
-336 -104 0
-337 52 0
-337 -72 0
-337 -42 -69 -49 0
-337 -42 -70 -50 0
-337 -42 -71 -51 0
-337 -65 0
-337 -66 0
-337 -67 0
-337 -68 0
-337 -69 -53 -60 0
-337 -69 -53 -61 0
-337 -69 -53 -62 0
-337 -70 -53 -61 0
-337 -70 -53 -62 0
-337 -71 -53 -62 0
-337 -69 -74 -79 0
-337 -69 -74 -80 0
-337 -69 -74 -81 0
-337 -70 -74 -80 0
-337 -70 -74 -81 0
-337 -71 -74 -81 0
-337 83 0
-337 -69 90 0
-337 -70 91 0
-337 -71 92 0
-337 -114 0
-338 52 0
-338 -72 0
-338 -43 -69 -49 0
-338 -43 -70 -50 0
-338 -43 -71 -51 0
-338 -66 0
-338 -67 0
-338 -68 0
-338 -69 -54 -60 0
-338 -69 -54 -61 0
-338 -69 -54 -62 0
-338 -70 -54 -61 0
-338 -70 -54 -62 0
-338 -71 -54 -62 0
-338 -69 -74 -79 0
-338 -69 -74 -80 0
-338 -69 -74 -81 0
-338 -70 -74 -80 0
-338 -70 -74 -81 0
-338 -71 -74 -81 0
-338 -69 -75 -79 0
-338 -69 -75 -80 0
-338 -69 -75 -81 0
-338 -70 -75 -80 0
-338 -70 -75 -81 0
-338 -71 -75 -81 0
-338 84 0
-338 -69 90 0
-338 -70 91 0
-338 -71 92 0
-338 -114 0
-339 52 0
-339 -72 0
-339 -44 -69 -49 0
-339 -44 -70 -50 0
-339 -44 -71 -51 0
-339 -64 0
-339 -67 0
-339 -68 0
-339 -69 -55 -60 0
-339 -69 -55 -61 0
-339 -69 -55 -62 0
-339 -70 -55 -61 0
-339 -70 -55 -62 0
-339 -71 -55 -62 0
-339 -69 -74 -79 0
-339 -69 -74 -80 0
-339 -69 -74 -81 0
-339 -70 -74 -80 0
-339 -70 -74 -81 0
-339 -71 -74 -81 0
-339 -69 -75 -79 0
-339 -69 -75 -80 0
-339 -69 -75 -81 0
-339 -70 -75 -80 0
-339 -70 -75 -81 0
-339 -71 -75 -81 0
-339 -69 -76 -79 0
-339 -69 -76 -80 0
-339 -69 -76 -81 0
-339 -70 -76 -80 0
-339 -70 -76 -81 0
-339 -71 -76 -81 0
-339 85 0
-339 -69 90 0
-339 -70 91 0
-339 -71 92 0
-339 -114 0
-340 52 0
-340 -72 0
-340 -45 -69 -49 0
-340 -45 -70 -50 0
-340 -45 -71 -51 0
-340 -64 0
-340 -65 0
-340 -68 0
-340 -69 -56 -60 0
-340 -69 -56 -61 0
-340 -69 -56 -62 0
-340 -70 -56 -61 0
-340 -70 -56 -62 0
-340 -71 -56 -62 0
-340 -69 -75 -79 0
-340 -69 -75 -80 0
-340 -69 -75 -81 0
-340 -70 -75 -80 0
-340 -70 -75 -81 0
-340 -71 -75 -81 0
-340 -69 -76 -79 0
-340 -69 -76 -80 0
-340 -69 -76 -81 0
-340 -70 -76 -80 0
-340 -70 -76 -81 0
-340 -71 -76 -81 0
-340 -69 -77 -79 0
-340 -69 -77 -80 0
-340 -69 -77 -81 0
-340 -70 -77 -80 0
-340 -70 -77 -81 0
-340 -71 -77 -81 0
-340 86 0
-340 -69 90 0
-340 -70 91 0
-340 -71 92 0
-340 -114 0
-341 52 0
-341 -72 0
-341 -46 -69 -49 0
-341 -46 -70 -50 0
-341 -46 -71 -51 0
-341 -64 0
-341 -65 0
-341 -66 0
-341 -69 -57 -60 0
-341 -69 -57 -61 0
-341 -69 -57 -62 0
-341 -70 -57 -61 0
-341 -70 -57 -62 0
-341 -71 -57 -62 0
-341 -69 -76 -79 0
-341 -69 -76 -80 0
-341 -69 -76 -81 0
-341 -70 -76 -80 0
-341 -70 -76 -81 0
-341 -71 -76 -81 0
-341 -69 -77 -79 0
-341 -69 -77 -80 0
-341 -69 -77 -81 0
-341 -70 -77 -80 0
-341 -70 -77 -81 0
-341 -71 -77 -81 0
-341 87 0
-341 -69 90 0
-341 -70 91 0
-341 -71 92 0
-341 -114 0
-342 52 0
-342 -72 0
-342 -47 -69 -49 0
-342 -47 -70 -50 0
-342 -47 -71 -51 0
-342 -64 0
-342 -65 0
-342 -66 0
-342 -67 0
-342 -69 -58 -60 0
-342 -69 -58 -61 0
-342 -69 -58 -62 0
-342 -70 -58 -61 0
-342 -70 -58 -62 0
-342 -71 -58 -62 0
-342 -69 -77 -79 0
-342 -69 -77 -80 0
-342 -69 -77 -81 0
-342 -70 -77 -80 0
-342 -70 -77 -81 0
-342 -71 -77 -81 0
-342 88 0
-342 -69 90 0
-342 -70 91 0
-342 -71 92 0
-342 -114 0
-343 52 0
-343 -81 0
-343 -42 -78 -49 0
-343 -42 -79 -50 0
-343 -42 -80 -51 0
-343 -75 0
-343 -76 0
-343 -77 0
-343 -78 -53 -60 0
-343 -78 -53 -61 0
-343 -78 -53 -62 0
-343 -79 -53 -61 0
-343 -79 -53 -62 0
-343 -80 -53 -62 0
-343 -78 -64 -70 0
-343 -78 -64 -71 0
-343 -78 -64 -72 0
-343 -79 -64 -71 0
-343 -79 -64 -72 0
-343 -80 -64 -72 0
-343 83 0
-343 -78 90 0
-343 -79 91 0
-343 -80 92 0
-343 -123 0
-344 52 0
-344 -81 0
-344 -43 -78 -49 0
-344 -43 -79 -50 0
-344 -43 -80 -51 0
-344 -76 0
-344 -77 0
-344 -78 -54 -60 0
-344 -78 -54 -61 0
-344 -78 -54 -62 0
-344 -79 -54 -61 0
-344 -79 -54 -62 0
-344 -80 -54 -62 0
-344 -78 -64 -70 0
-344 -78 -64 -71 0
-344 -78 -64 -72 0
-344 -79 -64 -71 0
-344 -79 -64 -72 0
-344 -80 -64 -72 0
-344 -78 -65 -70 0
-344 -78 -65 -71 0
-344 -78 -65 -72 0
-344 -79 -65 -71 0
-344 -79 -65 -72 0
-344 -80 -65 -72 0
-344 84 0
-344 -78 90 0
-344 -79 91 0
-344 -80 92 0
-344 -123 0
-345 52 0
-345 -81 0
-345 -44 -78 -49 0
-345 -44 -79 -50 0
-345 -44 -80 -51 0
-345 -77 0
-345 -78 -55 -60 0
-345 -78 -55 -61 0
-345 -78 -55 -62 0
-345 -79 -55 -61 0
-345 -79 -55 -62 0
-345 -80 -55 -62 0
-345 -78 -65 -70 0
-345 -78 -65 -71 0
-345 -78 -65 -72 0
-345 -79 -65 -71 0
-345 -79 -65 -72 0
-345 -80 -65 -72 0
-345 -78 -66 -70 0
-345 -78 -66 -71 0
-345 -78 -66 -72 0
-345 -79 -66 -71 0
-345 -79 -66 -72 0
-345 -80 -66 -72 0
-345 85 0
-345 -78 90 0
-345 -79 91 0
-345 -80 92 0
-345 -123 0
-346 52 0
-346 -81 0
-346 -45 -78 -49 0
-346 -45 -79 -50 0
-346 -45 -80 -51 0
-346 -74 0
-346 -78 -56 -60 0
-346 -78 -56 -61 0
-346 -78 -56 -62 0
-346 -79 -56 -61 0
-346 -79 -56 -62 0
-346 -80 -56 -62 0
-346 -78 -66 -70 0
-346 -78 -66 -71 0
-346 -78 -66 -72 0
-346 -79 -66 -71 0
-346 -79 -66 -72 0
-346 -80 -66 -72 0
-346 -78 -67 -70 0
-346 -78 -67 -71 0
-346 -78 -67 -72 0
-346 -79 -67 -71 0
-346 -79 -67 -72 0
-346 -80 -67 -72 0
-346 86 0
-346 -78 90 0
-346 -79 91 0
-346 -80 92 0
-346 -123 0
-347 52 0
-347 -81 0
-347 -46 -78 -49 0
-347 -46 -79 -50 0
-347 -46 -80 -51 0
-347 -74 0
-347 -75 0
-347 -78 -57 -60 0
-347 -78 -57 -61 0
-347 -78 -57 -62 0
-347 -79 -57 -61 0
-347 -79 -57 -62 0
-347 -80 -57 -62 0
-347 -78 -67 -70 0
-347 -78 -67 -71 0
-347 -78 -67 -72 0
-347 -79 -67 -71 0
-347 -79 -67 -72 0
-347 -80 -67 -72 0
-347 -78 -68 -70 0
-347 -78 -68 -71 0
-347 -78 -68 -72 0
-347 -79 -68 -71 0
-347 -79 -68 -72 0
-347 -80 -68 -72 0
-347 87 0
-347 -78 90 0
-347 -79 91 0
-347 -80 92 0
-347 -123 0
-348 52 0
-348 -81 0
-348 -47 -78 -49 0
-348 -47 -79 -50 0
-348 -47 -80 -51 0
-348 -74 0
-348 -75 0
-348 -76 0
-348 -78 -58 -60 0
-348 -78 -58 -61 0
-348 -78 -58 -62 0
-348 -79 -58 -61 0
-348 -79 -58 -62 0
-348 -80 -58 -62 0
-348 -78 -68 -70 0
-348 -78 -68 -71 0
-348 -78 -68 -72 0
-348 -79 -68 -71 0
-348 -79 -68 -72 0
-348 -80 -68 -72 0
-348 88 0
-348 -78 90 0
-348 -79 91 0
-348 -80 92 0
-348 -123 0
-349 52 0
-349 -42 -48 0
-349 -53 -59 0
-349 -53 -60 0
-349 -53 -61 0
-349 -53 -62 0
-349 -64 -69 0
-349 -64 -70 0
-349 -64 -71 0
-349 -64 -72 0
-349 -74 -78 0
-349 -74 -79 0
-349 -74 -80 0
-349 -74 -81 0
-349 83 0
-349 89 0
-350 52 0
-350 -43 -48 0
-350 -54 -59 0
-350 -54 -60 0
-350 -54 -61 0
-350 -54 -62 0
-350 -64 -69 0
-350 -64 -70 0
-350 -64 -71 0
-350 -64 -72 0
-350 -65 -69 0
-350 -65 -70 0
-350 -65 -71 0
-350 -65 -72 0
-350 -74 -78 0
-350 -74 -79 0
-350 -74 -80 0
-350 -74 -81 0
-350 -75 -78 0
-350 -75 -79 0
-350 -75 -80 0
-350 -75 -81 0
-350 84 0
-350 89 0
-351 52 0
-351 -44 -48 0
-351 -55 -59 0
-351 -55 -60 0
-351 -55 -61 0
-351 -55 -62 0
-351 -65 -69 0
-351 -65 -70 0
-351 -65 -71 0
-351 -65 -72 0
-351 -66 -69 0
-351 -66 -70 0
-351 -66 -71 0
-351 -66 -72 0
-351 -74 -78 0
-351 -74 -79 0
-351 -74 -80 0
-351 -74 -81 0
-351 -75 -78 0
-351 -75 -79 0
-351 -75 -80 0
-351 -75 -81 0
-351 -76 -78 0
-351 -76 -79 0
-351 -76 -80 0
-351 -76 -81 0
-351 85 0
-351 89 0
-352 52 0
-352 -45 -48 0
-352 -56 -59 0
-352 -56 -60 0
-352 -56 -61 0
-352 -56 -62 0
-352 -66 -69 0
-352 -66 -70 0
-352 -66 -71 0
-352 -66 -72 0
-352 -67 -69 0
-352 -67 -70 0
-352 -67 -71 0
-352 -67 -72 0
-352 -75 -78 0
-352 -75 -79 0
-352 -75 -80 0
-352 -75 -81 0
-352 -76 -78 0
-352 -76 -79 0
-352 -76 -80 0
-352 -76 -81 0
-352 -77 -78 0
-352 -77 -79 0
-352 -77 -80 0
-352 -77 -81 0
-352 86 0
-352 89 0
-353 52 0
-353 -46 -48 0
-353 -57 -59 0
-353 -57 -60 0
-353 -57 -61 0
-353 -57 -62 0
-353 -67 -69 0
-353 -67 -70 0
-353 -67 -71 0
-353 -67 -72 0
-353 -68 -69 0
-353 -68 -70 0
-353 -68 -71 0
-353 -68 -72 0
-353 -76 -78 0
-353 -76 -79 0
-353 -76 -80 0
-353 -76 -81 0
-353 -77 -78 0
-353 -77 -79 0
-353 -77 -80 0
-353 -77 -81 0
-353 87 0
-353 89 0
-354 52 0
-354 -47 -48 0
-354 -58 -59 0
-354 -58 -60 0
-354 -58 -61 0
-354 -58 -62 0
-354 -68 -69 0
-354 -68 -70 0
-354 -68 -71 0
-354 -68 -72 0
-354 -77 -78 0
-354 -77 -79 0
-354 -77 -80 0
-354 -77 -81 0
-354 88 0
-354 89 0
-355 63 0
-355 -51 0
-355 -53 -48 -60 0
-355 -53 -49 -61 0
-355 -53 -50 -62 0
-355 -43 0
-355 -44 0
-355 -45 0
-355 -46 0
-355 -47 0
-355 -48 -64 -70 0
-355 -48 -64 -71 0
-355 -48 -64 -72 0
-355 -49 -64 -71 0
-355 -49 -64 -72 0
-355 -50 -64 -72 0
-355 -48 -74 -79 0
-355 -48 -74 -80 0
-355 -48 -74 -81 0
-355 -49 -74 -80 0
-355 -49 -74 -81 0
-355 -50 -74 -81 0
-355 94 0
-355 -48 101 0
-355 -49 102 0
-355 -50 103 0
-355 -93 0
-356 63 0
-356 -51 0
-356 -54 -48 -60 0
-356 -54 -49 -61 0
-356 -54 -50 -62 0
-356 -42 0
-356 -44 0
-356 -45 0
-356 -46 0
-356 -47 0
-356 -48 -64 -70 0
-356 -48 -64 -71 0
-356 -48 -64 -72 0
-356 -49 -64 -71 0
-356 -49 -64 -72 0
-356 -50 -64 -72 0
-356 -48 -65 -70 0
-356 -48 -65 -71 0
-356 -48 -65 -72 0
-356 -49 -65 -71 0
-356 -49 -65 -72 0
-356 -50 -65 -72 0
-356 -48 -74 -79 0
-356 -48 -74 -80 0
-356 -48 -74 -81 0
-356 -49 -74 -80 0
-356 -49 -74 -81 0
-356 -50 -74 -81 0
-356 -48 -75 -79 0
-356 -48 -75 -80 0
-356 -48 -75 -81 0
-356 -49 -75 -80 0
-356 -49 -75 -81 0
-356 -50 -75 -81 0
-356 95 0
-356 -48 101 0
-356 -49 102 0
-356 -50 103 0
-356 -93 0
-357 63 0
-357 -51 0
-357 -55 -48 -60 0
-357 -55 -49 -61 0
-357 -55 -50 -62 0
-357 -42 0
-357 -43 0
-357 -45 0
-357 -46 0
-357 -47 0
-357 -48 -65 -70 0
-357 -48 -65 -71 0
-357 -48 -65 -72 0
-357 -49 -65 -71 0
-357 -49 -65 -72 0
-357 -50 -65 -72 0
-357 -48 -66 -70 0
-357 -48 -66 -71 0
-357 -48 -66 -72 0
-357 -49 -66 -71 0
-357 -49 -66 -72 0
-357 -50 -66 -72 0
-357 -48 -74 -79 0
-357 -48 -74 -80 0
-357 -48 -74 -81 0
-357 -49 -74 -80 0
-357 -49 -74 -81 0
-357 -50 -74 -81 0
-357 -48 -75 -79 0
-357 -48 -75 -80 0
-357 -48 -75 -81 0
-357 -49 -75 -80 0
-357 -49 -75 -81 0
-357 -50 -75 -81 0
-357 -48 -76 -79 0
-357 -48 -76 -80 0
-357 -48 -76 -81 0
-357 -49 -76 -80 0
-357 -49 -76 -81 0
-357 -50 -76 -81 0
-357 96 0
-357 -48 101 0
-357 -49 102 0
-357 -50 103 0
-357 -93 0
-358 63 0
-358 -51 0
-358 -56 -48 -60 0
-358 -56 -49 -61 0
-358 -56 -50 -62 0
-358 -42 0
-358 -43 0
-358 -44 0
-358 -46 0
-358 -47 0
-358 -48 -66 -70 0
-358 -48 -66 -71 0
-358 -48 -66 -72 0
-358 -49 -66 -71 0
-358 -49 -66 -72 0
-358 -50 -66 -72 0
-358 -48 -67 -70 0
-358 -48 -67 -71 0
-358 -48 -67 -72 0
-358 -49 -67 -71 0
-358 -49 -67 -72 0
-358 -50 -67 -72 0
-358 -48 -75 -79 0
-358 -48 -75 -80 0
-358 -48 -75 -81 0
-358 -49 -75 -80 0
-358 -49 -75 -81 0
-358 -50 -75 -81 0
-358 -48 -76 -79 0
-358 -48 -76 -80 0
-358 -48 -76 -81 0
-358 -49 -76 -80 0
-358 -49 -76 -81 0
-358 -50 -76 -81 0
-358 -48 -77 -79 0
-358 -48 -77 -80 0
-358 -48 -77 -81 0
-358 -49 -77 -80 0
-358 -49 -77 -81 0
-358 -50 -77 -81 0
-358 97 0
-358 -48 101 0
-358 -49 102 0
-358 -50 103 0
-358 -93 0
-359 63 0
-359 -51 0
-359 -57 -48 -60 0
-359 -57 -49 -61 0
-359 -57 -50 -62 0
-359 -42 0
-359 -43 0
-359 -44 0
-359 -45 0
-359 -47 0
-359 -48 -67 -70 0
-359 -48 -67 -71 0
-359 -48 -67 -72 0
-359 -49 -67 -71 0
-359 -49 -67 -72 0
-359 -50 -67 -72 0
-359 -48 -68 -70 0
-359 -48 -68 -71 0
-359 -48 -68 -72 0
-359 -49 -68 -71 0
-359 -49 -68 -72 0
-359 -50 -68 -72 0
-359 -48 -76 -79 0
-359 -48 -76 -80 0
-359 -48 -76 -81 0
-359 -49 -76 -80 0
-359 -49 -76 -81 0
-359 -50 -76 -81 0
-359 -48 -77 -79 0
-359 -48 -77 -80 0
-359 -48 -77 -81 0
-359 -49 -77 -80 0
-359 -49 -77 -81 0
-359 -50 -77 -81 0
-359 98 0
-359 -48 101 0
-359 -49 102 0
-359 -50 103 0
-359 -93 0
-360 63 0
-360 -51 0
-360 -58 -48 -60 0
-360 -58 -49 -61 0
-360 -58 -50 -62 0
-360 -42 0
-360 -43 0
-360 -44 0
-360 -45 0
-360 -46 0
-360 -48 -68 -70 0
-360 -48 -68 -71 0
-360 -48 -68 -72 0
-360 -49 -68 -71 0
-360 -49 -68 -72 0
-360 -50 -68 -72 0
-360 -48 -77 -79 0
-360 -48 -77 -80 0
-360 -48 -77 -81 0
-360 -49 -77 -80 0
-360 -49 -77 -81 0
-360 -50 -77 -81 0
-360 99 0
-360 -48 101 0
-360 -49 102 0
-360 -50 103 0
-360 -93 0
-361 63 0
-361 -72 0
-361 -53 -69 -60 0
-361 -53 -70 -61 0
-361 -53 -71 -62 0
-361 -65 0
-361 -66 0
-361 -67 0
-361 -68 0
-361 -69 -42 -49 0
-361 -69 -42 -50 0
-361 -69 -42 -51 0
-361 -70 -42 -50 0
-361 -70 -42 -51 0
-361 -71 -42 -51 0
-361 -69 -74 -79 0
-361 -69 -74 -80 0
-361 -69 -74 -81 0
-361 -70 -74 -80 0
-361 -70 -74 -81 0
-361 -71 -74 -81 0
-361 94 0
-361 -69 101 0
-361 -70 102 0
-361 -71 103 0
-361 -114 0
-362 63 0
-362 -72 0
-362 -54 -69 -60 0
-362 -54 -70 -61 0
-362 -54 -71 -62 0
-362 -66 0
-362 -67 0
-362 -68 0
-362 -69 -43 -49 0
-362 -69 -43 -50 0
-362 -69 -43 -51 0
-362 -70 -43 -50 0
-362 -70 -43 -51 0
-362 -71 -43 -51 0
-362 -69 -74 -79 0
-362 -69 -74 -80 0
-362 -69 -74 -81 0
-362 -70 -74 -80 0
-362 -70 -74 -81 0
-362 -71 -74 -81 0
-362 -69 -75 -79 0
-362 -69 -75 -80 0
-362 -69 -75 -81 0
-362 -70 -75 -80 0
-362 -70 -75 -81 0
-362 -71 -75 -81 0
-362 95 0
-362 -69 101 0
-362 -70 102 0
-362 -71 103 0
-362 -114 0
-363 63 0
-363 -72 0
-363 -55 -69 -60 0
-363 -55 -70 -61 0
-363 -55 -71 -62 0
-363 -64 0
-363 -67 0
-363 -68 0
-363 -69 -44 -49 0
-363 -69 -44 -50 0
-363 -69 -44 -51 0
-363 -70 -44 -50 0
-363 -70 -44 -51 0
-363 -71 -44 -51 0
-363 -69 -74 -79 0
-363 -69 -74 -80 0
-363 -69 -74 -81 0
-363 -70 -74 -80 0
-363 -70 -74 -81 0
-363 -71 -74 -81 0
-363 -69 -75 -79 0
-363 -69 -75 -80 0
-363 -69 -75 -81 0
-363 -70 -75 -80 0
-363 -70 -75 -81 0
-363 -71 -75 -81 0
-363 -69 -76 -79 0
-363 -69 -76 -80 0
-363 -69 -76 -81 0
-363 -70 -76 -80 0
-363 -70 -76 -81 0
-363 -71 -76 -81 0
-363 96 0
-363 -69 101 0
-363 -70 102 0
-363 -71 103 0
-363 -114 0
-364 63 0
-364 -72 0
-364 -56 -69 -60 0
-364 -56 -70 -61 0
-364 -56 -71 -62 0
-364 -64 0
-364 -65 0
-364 -68 0
-364 -69 -45 -49 0
-364 -69 -45 -50 0
-364 -69 -45 -51 0
-364 -70 -45 -50 0
-364 -70 -45 -51 0
-364 -71 -45 -51 0
-364 -69 -75 -79 0
-364 -69 -75 -80 0
-364 -69 -75 -81 0
-364 -70 -75 -80 0
-364 -70 -75 -81 0
-364 -71 -75 -81 0
-364 -69 -76 -79 0
-364 -69 -76 -80 0
-364 -69 -76 -81 0
-364 -70 -76 -80 0
-364 -70 -76 -81 0
-364 -71 -76 -81 0
-364 -69 -77 -79 0
-364 -69 -77 -80 0
-364 -69 -77 -81 0
-364 -70 -77 -80 0
-364 -70 -77 -81 0
-364 -71 -77 -81 0
-364 97 0
-364 -69 101 0
-364 -70 102 0
-364 -71 103 0
-364 -114 0
-365 63 0
-365 -72 0
-365 -57 -69 -60 0
-365 -57 -70 -61 0
-365 -57 -71 -62 0
-365 -64 0
-365 -65 0
-365 -66 0
-365 -69 -46 -49 0
-365 -69 -46 -50 0
-365 -69 -46 -51 0
-365 -70 -46 -50 0
-365 -70 -46 -51 0
-365 -71 -46 -51 0
-365 -69 -76 -79 0
-365 -69 -76 -80 0
-365 -69 -76 -81 0
-365 -70 -76 -80 0
-365 -70 -76 -81 0
-365 -71 -76 -81 0
-365 -69 -77 -79 0
-365 -69 -77 -80 0
-365 -69 -77 -81 0
-365 -70 -77 -80 0
-365 -70 -77 -81 0
-365 -71 -77 -81 0
-365 98 0
-365 -69 101 0
-365 -70 102 0
-365 -71 103 0
-365 -114 0
-366 63 0
-366 -72 0
-366 -58 -69 -60 0
-366 -58 -70 -61 0
-366 -58 -71 -62 0
-366 -64 0
-366 -65 0
-366 -66 0
-366 -67 0
-366 -69 -47 -49 0
-366 -69 -47 -50 0
-366 -69 -47 -51 0
-366 -70 -47 -50 0
-366 -70 -47 -51 0
-366 -71 -47 -51 0
-366 -69 -77 -79 0
-366 -69 -77 -80 0
-366 -69 -77 -81 0
-366 -70 -77 -80 0
-366 -70 -77 -81 0
-366 -71 -77 -81 0
-366 99 0
-366 -69 101 0
-366 -70 102 0
-366 -71 103 0
-366 -114 0
-367 63 0
-367 -81 0
-367 -53 -78 -60 0
-367 -53 -79 -61 0
-367 -53 -80 -62 0
-367 -75 0
-367 -76 0
-367 -77 0
-367 -78 -42 -49 0
-367 -78 -42 -50 0
-367 -78 -42 -51 0
-367 -79 -42 -50 0
-367 -79 -42 -51 0
-367 -80 -42 -51 0
-367 -78 -64 -70 0
-367 -78 -64 -71 0
-367 -78 -64 -72 0
-367 -79 -64 -71 0
-367 -79 -64 -72 0
-367 -80 -64 -72 0
-367 94 0
-367 -78 101 0
-367 -79 102 0
-367 -80 103 0
-367 -123 0
-368 63 0
-368 -81 0
-368 -54 -78 -60 0
-368 -54 -79 -61 0
-368 -54 -80 -62 0
-368 -76 0
-368 -77 0
-368 -78 -43 -49 0
-368 -78 -43 -50 0
-368 -78 -43 -51 0
-368 -79 -43 -50 0
-368 -79 -43 -51 0
-368 -80 -43 -51 0
-368 -78 -64 -70 0
-368 -78 -64 -71 0
-368 -78 -64 -72 0
-368 -79 -64 -71 0
-368 -79 -64 -72 0
-368 -80 -64 -72 0
-368 -78 -65 -70 0
-368 -78 -65 -71 0
-368 -78 -65 -72 0
-368 -79 -65 -71 0
-368 -79 -65 -72 0
-368 -80 -65 -72 0
-368 95 0
-368 -78 101 0
-368 -79 102 0
-368 -80 103 0
-368 -123 0
-369 63 0
-369 -81 0
-369 -55 -78 -60 0
-369 -55 -79 -61 0
-369 -55 -80 -62 0
-369 -77 0
-369 -78 -44 -49 0
-369 -78 -44 -50 0
-369 -78 -44 -51 0
-369 -79 -44 -50 0
-369 -79 -44 -51 0
-369 -80 -44 -51 0
-369 -78 -65 -70 0
-369 -78 -65 -71 0
-369 -78 -65 -72 0
-369 -79 -65 -71 0
-369 -79 -65 -72 0
-369 -80 -65 -72 0
-369 -78 -66 -70 0
-369 -78 -66 -71 0
-369 -78 -66 -72 0
-369 -79 -66 -71 0
-369 -79 -66 -72 0
-369 -80 -66 -72 0
-369 96 0
-369 -78 101 0
-369 -79 102 0
-369 -80 103 0
-369 -123 0
-370 63 0
-370 -81 0
-370 -56 -78 -60 0
-370 -56 -79 -61 0
-370 -56 -80 -62 0
-370 -74 0
-370 -78 -45 -49 0
-370 -78 -45 -50 0
-370 -78 -45 -51 0
-370 -79 -45 -50 0
-370 -79 -45 -51 0
-370 -80 -45 -51 0
-370 -78 -66 -70 0
-370 -78 -66 -71 0
-370 -78 -66 -72 0
-370 -79 -66 -71 0
-370 -79 -66 -72 0
-370 -80 -66 -72 0
-370 -78 -67 -70 0
-370 -78 -67 -71 0
-370 -78 -67 -72 0
-370 -79 -67 -71 0
-370 -79 -67 -72 0
-370 -80 -67 -72 0
-370 97 0
-370 -78 101 0
-370 -79 102 0
-370 -80 103 0
-370 -123 0
-371 63 0
-371 -81 0
-371 -57 -78 -60 0
-371 -57 -79 -61 0
-371 -57 -80 -62 0
-371 -74 0
-371 -75 0
-371 -78 -46 -49 0
-371 -78 -46 -50 0
-371 -78 -46 -51 0
-371 -79 -46 -50 0
-371 -79 -46 -51 0
-371 -80 -46 -51 0
-371 -78 -67 -70 0
-371 -78 -67 -71 0
-371 -78 -67 -72 0
-371 -79 -67 -71 0
-371 -79 -67 -72 0
-371 -80 -67 -72 0
-371 -78 -68 -70 0
-371 -78 -68 -71 0
-371 -78 -68 -72 0
-371 -79 -68 -71 0
-371 -79 -68 -72 0
-371 -80 -68 -72 0
-371 98 0
-371 -78 101 0
-371 -79 102 0
-371 -80 103 0
-371 -123 0
-372 63 0
-372 -81 0
-372 -58 -78 -60 0
-372 -58 -79 -61 0
-372 -58 -80 -62 0
-372 -74 0
-372 -75 0
-372 -76 0
-372 -78 -47 -49 0
-372 -78 -47 -50 0
-372 -78 -47 -51 0
-372 -79 -47 -50 0
-372 -79 -47 -51 0
-372 -80 -47 -51 0
-372 -78 -68 -70 0
-372 -78 -68 -71 0
-372 -78 -68 -72 0
-372 -79 -68 -71 0
-372 -79 -68 -72 0
-372 -80 -68 -72 0
-372 99 0
-372 -78 101 0
-372 -79 102 0
-372 -80 103 0
-372 -123 0
-373 63 0
-373 -53 -59 0
-373 -42 -48 0
-373 -42 -49 0
-373 -42 -50 0
-373 -42 -51 0
-373 -64 -69 0
-373 -64 -70 0
-373 -64 -71 0
-373 -64 -72 0
-373 -74 -78 0
-373 -74 -79 0
-373 -74 -80 0
-373 -74 -81 0
-373 94 0
-373 100 0
-374 63 0
-374 -54 -59 0
-374 -43 -48 0
-374 -43 -49 0
-374 -43 -50 0
-374 -43 -51 0
-374 -64 -69 0
-374 -64 -70 0
-374 -64 -71 0
-374 -64 -72 0
-374 -65 -69 0
-374 -65 -70 0
-374 -65 -71 0
-374 -65 -72 0
-374 -74 -78 0
-374 -74 -79 0
-374 -74 -80 0
-374 -74 -81 0
-374 -75 -78 0
-374 -75 -79 0
-374 -75 -80 0
-374 -75 -81 0
-374 95 0
-374 100 0
-375 63 0
-375 -55 -59 0
-375 -44 -48 0
-375 -44 -49 0
-375 -44 -50 0
-375 -44 -51 0
-375 -65 -69 0
-375 -65 -70 0
-375 -65 -71 0
-375 -65 -72 0
-375 -66 -69 0
-375 -66 -70 0
-375 -66 -71 0
-375 -66 -72 0
-375 -74 -78 0
-375 -74 -79 0
-375 -74 -80 0
-375 -74 -81 0
-375 -75 -78 0
-375 -75 -79 0
-375 -75 -80 0
-375 -75 -81 0
-375 -76 -78 0
-375 -76 -79 0
-375 -76 -80 0
-375 -76 -81 0
-375 96 0
-375 100 0
-376 63 0
-376 -56 -59 0
-376 -45 -48 0
-376 -45 -49 0
-376 -45 -50 0
-376 -45 -51 0
-376 -66 -69 0
-376 -66 -70 0
-376 -66 -71 0
-376 -66 -72 0
-376 -67 -69 0
-376 -67 -70 0
-376 -67 -71 0
-376 -67 -72 0
-376 -75 -78 0
-376 -75 -79 0
-376 -75 -80 0
-376 -75 -81 0
-376 -76 -78 0
-376 -76 -79 0
-376 -76 -80 0
-376 -76 -81 0
-376 -77 -78 0
-376 -77 -79 0
-376 -77 -80 0
-376 -77 -81 0
-376 97 0
-376 100 0
-377 63 0
-377 -57 -59 0
-377 -46 -48 0
-377 -46 -49 0
-377 -46 -50 0
-377 -46 -51 0
-377 -67 -69 0
-377 -67 -70 0
-377 -67 -71 0
-377 -67 -72 0
-377 -68 -69 0
-377 -68 -70 0
-377 -68 -71 0
-377 -68 -72 0
-377 -76 -78 0
-377 -76 -79 0
-377 -76 -80 0
-377 -76 -81 0
-377 -77 -78 0
-377 -77 -79 0
-377 -77 -80 0
-377 -77 -81 0
-377 98 0
-377 100 0
-378 63 0
-378 -58 -59 0
-378 -47 -48 0
-378 -47 -49 0
-378 -47 -50 0
-378 -47 -51 0
-378 -68 -69 0
-378 -68 -70 0
-378 -68 -71 0
-378 -68 -72 0
-378 -77 -78 0
-378 -77 -79 0
-378 -77 -80 0
-378 -77 -81 0
-378 99 0
-378 100 0
-379 73 0
-379 -51 0
-379 -64 -48 -70 0
-379 -64 -49 -71 0
-379 -64 -50 -72 0
-379 -44 0
-379 -45 0
-379 -46 0
-379 -47 0
-379 -48 -53 -60 0
-379 -48 -53 -61 0
-379 -48 -53 -62 0
-379 -49 -53 -61 0
-379 -49 -53 -62 0
-379 -50 -53 -62 0
-379 -48 -54 -60 0
-379 -48 -54 -61 0
-379 -48 -54 -62 0
-379 -49 -54 -61 0
-379 -49 -54 -62 0
-379 -50 -54 -62 0
-379 -48 -74 -79 0
-379 -48 -74 -80 0
-379 -48 -74 -81 0
-379 -49 -74 -80 0
-379 -49 -74 -81 0
-379 -50 -74 -81 0
-379 -48 -75 -79 0
-379 -48 -75 -80 0
-379 -48 -75 -81 0
-379 -49 -75 -80 0
-379 -49 -75 -81 0
-379 -50 -75 -81 0
-379 105 0
-379 -48 111 0
-379 -49 112 0
-379 -50 113 0
-379 -93 0
-380 73 0
-380 -51 0
-380 -65 -48 -70 0
-380 -65 -49 -71 0
-380 -65 -50 -72 0
-380 -42 0
-380 -45 0
-380 -46 0
-380 -47 0
-380 -48 -54 -60 0
-380 -48 -54 -61 0
-380 -48 -54 -62 0
-380 -49 -54 -61 0
-380 -49 -54 -62 0
-380 -50 -54 -62 0
-380 -48 -55 -60 0
-380 -48 -55 -61 0
-380 -48 -55 -62 0
-380 -49 -55 -61 0
-380 -49 -55 -62 0
-380 -50 -55 -62 0
-380 -48 -74 -79 0
-380 -48 -74 -80 0
-380 -48 -74 -81 0
-380 -49 -74 -80 0
-380 -49 -74 -81 0
-380 -50 -74 -81 0
-380 -48 -75 -79 0
-380 -48 -75 -80 0
-380 -48 -75 -81 0
-380 -49 -75 -80 0
-380 -49 -75 -81 0
-380 -50 -75 -81 0
-380 -48 -76 -79 0
-380 -48 -76 -80 0
-380 -48 -76 -81 0
-380 -49 -76 -80 0
-380 -49 -76 -81 0
-380 -50 -76 -81 0
-380 106 0
-380 -48 111 0
-380 -49 112 0
-380 -50 113 0
-380 -93 0
-381 73 0
-381 -51 0
-381 -66 -48 -70 0
-381 -66 -49 -71 0
-381 -66 -50 -72 0
-381 -42 0
-381 -43 0
-381 -46 0
-381 -47 0
-381 -48 -55 -60 0
-381 -48 -55 -61 0
-381 -48 -55 -62 0
-381 -49 -55 -61 0
-381 -49 -55 -62 0
-381 -50 -55 -62 0
-381 -48 -56 -60 0
-381 -48 -56 -61 0
-381 -48 -56 -62 0
-381 -49 -56 -61 0
-381 -49 -56 -62 0
-381 -50 -56 -62 0
-381 -48 -74 -79 0
-381 -48 -74 -80 0
-381 -48 -74 -81 0
-381 -49 -74 -80 0
-381 -49 -74 -81 0
-381 -50 -74 -81 0
-381 -48 -75 -79 0
-381 -48 -75 -80 0
-381 -48 -75 -81 0
-381 -49 -75 -80 0
-381 -49 -75 -81 0
-381 -50 -75 -81 0
-381 -48 -76 -79 0
-381 -48 -76 -80 0
-381 -48 -76 -81 0
-381 -49 -76 -80 0
-381 -49 -76 -81 0
-381 -50 -76 -81 0
-381 -48 -77 -79 0
-381 -48 -77 -80 0
-381 -48 -77 -81 0
-381 -49 -77 -80 0
-381 -49 -77 -81 0
-381 -50 -77 -81 0
-381 107 0
-381 -48 111 0
-381 -49 112 0
-381 -50 113 0
-381 -93 0
-382 73 0
-382 -51 0
-382 -67 -48 -70 0
-382 -67 -49 -71 0
-382 -67 -50 -72 0
-382 -42 0
-382 -43 0
-382 -44 0
-382 -47 0
-382 -48 -56 -60 0
-382 -48 -56 -61 0
-382 -48 -56 -62 0
-382 -49 -56 -61 0
-382 -49 -56 -62 0
-382 -50 -56 -62 0
-382 -48 -57 -60 0
-382 -48 -57 -61 0
-382 -48 -57 -62 0
-382 -49 -57 -61 0
-382 -49 -57 -62 0
-382 -50 -57 -62 0
-382 -48 -75 -79 0
-382 -48 -75 -80 0
-382 -48 -75 -81 0
-382 -49 -75 -80 0
-382 -49 -75 -81 0
-382 -50 -75 -81 0
-382 -48 -76 -79 0
-382 -48 -76 -80 0
-382 -48 -76 -81 0
-382 -49 -76 -80 0
-382 -49 -76 -81 0
-382 -50 -76 -81 0
-382 -48 -77 -79 0
-382 -48 -77 -80 0
-382 -48 -77 -81 0
-382 -49 -77 -80 0
-382 -49 -77 -81 0
-382 -50 -77 -81 0
-382 108 0
-382 -48 111 0
-382 -49 112 0
-382 -50 113 0
-382 -93 0
-383 73 0
-383 -51 0
-383 -68 -48 -70 0
-383 -68 -49 -71 0
-383 -68 -50 -72 0
-383 -42 0
-383 -43 0
-383 -44 0
-383 -45 0
-383 -48 -57 -60 0
-383 -48 -57 -61 0
-383 -48 -57 -62 0
-383 -49 -57 -61 0
-383 -49 -57 -62 0
-383 -50 -57 -62 0
-383 -48 -58 -60 0
-383 -48 -58 -61 0
-383 -48 -58 -62 0
-383 -49 -58 -61 0
-383 -49 -58 -62 0
-383 -50 -58 -62 0
-383 -48 -76 -79 0
-383 -48 -76 -80 0
-383 -48 -76 -81 0
-383 -49 -76 -80 0
-383 -49 -76 -81 0
-383 -50 -76 -81 0
-383 -48 -77 -79 0
-383 -48 -77 -80 0
-383 -48 -77 -81 0
-383 -49 -77 -80 0
-383 -49 -77 -81 0
-383 -50 -77 -81 0
-383 109 0
-383 -48 111 0
-383 -49 112 0
-383 -50 113 0
-383 -93 0
-384 73 0
-384 -62 0
-384 -64 -59 -70 0
-384 -64 -60 -71 0
-384 -64 -61 -72 0
-384 -55 0
-384 -56 0
-384 -57 0
-384 -58 0
-384 -59 -42 -49 0
-384 -59 -42 -50 0
-384 -59 -42 -51 0
-384 -60 -42 -50 0
-384 -60 -42 -51 0
-384 -61 -42 -51 0
-384 -59 -43 -49 0
-384 -59 -43 -50 0
-384 -59 -43 -51 0
-384 -60 -43 -50 0
-384 -60 -43 -51 0
-384 -61 -43 -51 0
-384 -59 -74 -79 0
-384 -59 -74 -80 0
-384 -59 -74 -81 0
-384 -60 -74 -80 0
-384 -60 -74 -81 0
-384 -61 -74 -81 0
-384 -59 -75 -79 0
-384 -59 -75 -80 0
-384 -59 -75 -81 0
-384 -60 -75 -80 0
-384 -60 -75 -81 0
-384 -61 -75 -81 0
-384 105 0
-384 -59 111 0
-384 -60 112 0
-384 -61 113 0
-384 -104 0
-385 73 0
-385 -62 0
-385 -65 -59 -70 0
-385 -65 -60 -71 0
-385 -65 -61 -72 0
-385 -53 0
-385 -56 0
-385 -57 0
-385 -58 0
-385 -59 -43 -49 0
-385 -59 -43 -50 0
-385 -59 -43 -51 0
-385 -60 -43 -50 0
-385 -60 -43 -51 0
-385 -61 -43 -51 0
-385 -59 -44 -49 0
-385 -59 -44 -50 0
-385 -59 -44 -51 0
-385 -60 -44 -50 0
-385 -60 -44 -51 0
-385 -61 -44 -51 0
-385 -59 -74 -79 0
-385 -59 -74 -80 0
-385 -59 -74 -81 0
-385 -60 -74 -80 0
-385 -60 -74 -81 0
-385 -61 -74 -81 0
-385 -59 -75 -79 0
-385 -59 -75 -80 0
-385 -59 -75 -81 0
-385 -60 -75 -80 0
-385 -60 -75 -81 0
-385 -61 -75 -81 0
-385 -59 -76 -79 0
-385 -59 -76 -80 0
-385 -59 -76 -81 0
-385 -60 -76 -80 0
-385 -60 -76 -81 0
-385 -61 -76 -81 0
-385 106 0
-385 -59 111 0
-385 -60 112 0
-385 -61 113 0
-385 -104 0
-386 73 0
-386 -62 0
-386 -66 -59 -70 0
-386 -66 -60 -71 0
-386 -66 -61 -72 0
-386 -53 0
-386 -54 0
-386 -57 0
-386 -58 0
-386 -59 -44 -49 0
-386 -59 -44 -50 0
-386 -59 -44 -51 0
-386 -60 -44 -50 0
-386 -60 -44 -51 0
-386 -61 -44 -51 0
-386 -59 -45 -49 0
-386 -59 -45 -50 0
-386 -59 -45 -51 0
-386 -60 -45 -50 0
-386 -60 -45 -51 0
-386 -61 -45 -51 0
-386 -59 -74 -79 0
-386 -59 -74 -80 0
-386 -59 -74 -81 0
-386 -60 -74 -80 0
-386 -60 -74 -81 0
-386 -61 -74 -81 0
-386 -59 -75 -79 0
-386 -59 -75 -80 0
-386 -59 -75 -81 0
-386 -60 -75 -80 0
-386 -60 -75 -81 0
-386 -61 -75 -81 0
-386 -59 -76 -79 0
-386 -59 -76 -80 0
-386 -59 -76 -81 0
-386 -60 -76 -80 0
-386 -60 -76 -81 0
-386 -61 -76 -81 0
-386 -59 -77 -79 0
-386 -59 -77 -80 0
-386 -59 -77 -81 0
-386 -60 -77 -80 0
-386 -60 -77 -81 0
-386 -61 -77 -81 0
-386 107 0
-386 -59 111 0
-386 -60 112 0
-386 -61 113 0
-386 -104 0
-387 73 0
-387 -62 0
-387 -67 -59 -70 0
-387 -67 -60 -71 0
-387 -67 -61 -72 0
-387 -53 0
-387 -54 0
-387 -55 0
-387 -58 0
-387 -59 -45 -49 0
-387 -59 -45 -50 0
-387 -59 -45 -51 0
-387 -60 -45 -50 0
-387 -60 -45 -51 0
-387 -61 -45 -51 0
-387 -59 -46 -49 0
-387 -59 -46 -50 0
-387 -59 -46 -51 0
-387 -60 -46 -50 0
-387 -60 -46 -51 0
-387 -61 -46 -51 0
-387 -59 -75 -79 0
-387 -59 -75 -80 0
-387 -59 -75 -81 0
-387 -60 -75 -80 0
-387 -60 -75 -81 0
-387 -61 -75 -81 0
-387 -59 -76 -79 0
-387 -59 -76 -80 0
-387 -59 -76 -81 0
-387 -60 -76 -80 0
-387 -60 -76 -81 0
-387 -61 -76 -81 0
-387 -59 -77 -79 0
-387 -59 -77 -80 0
-387 -59 -77 -81 0
-387 -60 -77 -80 0
-387 -60 -77 -81 0
-387 -61 -77 -81 0
-387 108 0
-387 -59 111 0
-387 -60 112 0
-387 -61 113 0
-387 -104 0
-388 73 0
-388 -62 0
-388 -68 -59 -70 0
-388 -68 -60 -71 0
-388 -68 -61 -72 0
-388 -53 0
-388 -54 0
-388 -55 0
-388 -56 0
-388 -59 -46 -49 0
-388 -59 -46 -50 0
-388 -59 -46 -51 0
-388 -60 -46 -50 0
-388 -60 -46 -51 0
-388 -61 -46 -51 0
-388 -59 -47 -49 0
-388 -59 -47 -50 0
-388 -59 -47 -51 0
-388 -60 -47 -50 0
-388 -60 -47 -51 0
-388 -61 -47 -51 0
-388 -59 -76 -79 0
-388 -59 -76 -80 0
-388 -59 -76 -81 0
-388 -60 -76 -80 0
-388 -60 -76 -81 0
-388 -61 -76 -81 0
-388 -59 -77 -79 0
-388 -59 -77 -80 0
-388 -59 -77 -81 0
-388 -60 -77 -80 0
-388 -60 -77 -81 0
-388 -61 -77 -81 0
-388 109 0
-388 -59 111 0
-388 -60 112 0
-388 -61 113 0
-388 -104 0
-389 73 0
-389 -81 0
-389 -64 -78 -70 0
-389 -64 -79 -71 0
-389 -64 -80 -72 0
-389 -76 0
-389 -77 0
-389 -78 -42 -49 0
-389 -78 -42 -50 0
-389 -78 -42 -51 0
-389 -79 -42 -50 0
-389 -79 -42 -51 0
-389 -80 -42 -51 0
-389 -78 -43 -49 0
-389 -78 -43 -50 0
-389 -78 -43 -51 0
-389 -79 -43 -50 0
-389 -79 -43 -51 0
-389 -80 -43 -51 0
-389 -78 -53 -60 0
-389 -78 -53 -61 0
-389 -78 -53 -62 0
-389 -79 -53 -61 0
-389 -79 -53 -62 0
-389 -80 -53 -62 0
-389 -78 -54 -60 0
-389 -78 -54 -61 0
-389 -78 -54 -62 0
-389 -79 -54 -61 0
-389 -79 -54 -62 0
-389 -80 -54 -62 0
-389 105 0
-389 -78 111 0
-389 -79 112 0
-389 -80 113 0
-389 -123 0
-390 73 0
-390 -81 0
-390 -65 -78 -70 0
-390 -65 -79 -71 0
-390 -65 -80 -72 0
-390 -77 0
-390 -78 -43 -49 0
-390 -78 -43 -50 0
-390 -78 -43 -51 0
-390 -79 -43 -50 0
-390 -79 -43 -51 0
-390 -80 -43 -51 0
-390 -78 -44 -49 0
-390 -78 -44 -50 0
-390 -78 -44 -51 0
-390 -79 -44 -50 0
-390 -79 -44 -51 0
-390 -80 -44 -51 0
-390 -78 -54 -60 0
-390 -78 -54 -61 0
-390 -78 -54 -62 0
-390 -79 -54 -61 0
-390 -79 -54 -62 0
-390 -80 -54 -62 0
-390 -78 -55 -60 0
-390 -78 -55 -61 0
-390 -78 -55 -62 0
-390 -79 -55 -61 0
-390 -79 -55 -62 0
-390 -80 -55 -62 0
-390 106 0
-390 -78 111 0
-390 -79 112 0
-390 -80 113 0
-390 -123 0
-391 73 0
-391 -81 0
-391 -66 -78 -70 0
-391 -66 -79 -71 0
-391 -66 -80 -72 0
-391 -78 -44 -49 0
-391 -78 -44 -50 0
-391 -78 -44 -51 0
-391 -79 -44 -50 0
-391 -79 -44 -51 0
-391 -80 -44 -51 0
-391 -78 -45 -49 0
-391 -78 -45 -50 0
-391 -78 -45 -51 0
-391 -79 -45 -50 0
-391 -79 -45 -51 0
-391 -80 -45 -51 0
-391 -78 -55 -60 0
-391 -78 -55 -61 0
-391 -78 -55 -62 0
-391 -79 -55 -61 0
-391 -79 -55 -62 0
-391 -80 -55 -62 0
-391 -78 -56 -60 0
-391 -78 -56 -61 0
-391 -78 -56 -62 0
-391 -79 -56 -61 0
-391 -79 -56 -62 0
-391 -80 -56 -62 0
-391 107 0
-391 -78 111 0
-391 -79 112 0
-391 -80 113 0
-391 -123 0
-392 73 0
-392 -81 0
-392 -67 -78 -70 0
-392 -67 -79 -71 0
-392 -67 -80 -72 0
-392 -74 0
-392 -78 -45 -49 0
-392 -78 -45 -50 0
-392 -78 -45 -51 0
-392 -79 -45 -50 0
-392 -79 -45 -51 0
-392 -80 -45 -51 0
-392 -78 -46 -49 0
-392 -78 -46 -50 0
-392 -78 -46 -51 0
-392 -79 -46 -50 0
-392 -79 -46 -51 0
-392 -80 -46 -51 0
-392 -78 -56 -60 0
-392 -78 -56 -61 0
-392 -78 -56 -62 0
-392 -79 -56 -61 0
-392 -79 -56 -62 0
-392 -80 -56 -62 0
-392 -78 -57 -60 0
-392 -78 -57 -61 0
-392 -78 -57 -62 0
-392 -79 -57 -61 0
-392 -79 -57 -62 0
-392 -80 -57 -62 0
-392 108 0
-392 -78 111 0
-392 -79 112 0
-392 -80 113 0
-392 -123 0
-393 73 0
-393 -81 0
-393 -68 -78 -70 0
-393 -68 -79 -71 0
-393 -68 -80 -72 0
-393 -74 0
-393 -75 0
-393 -78 -46 -49 0
-393 -78 -46 -50 0
-393 -78 -46 -51 0
-393 -79 -46 -50 0
-393 -79 -46 -51 0
-393 -80 -46 -51 0
-393 -78 -47 -49 0
-393 -78 -47 -50 0
-393 -78 -47 -51 0
-393 -79 -47 -50 0
-393 -79 -47 -51 0
-393 -80 -47 -51 0
-393 -78 -57 -60 0
-393 -78 -57 -61 0
-393 -78 -57 -62 0
-393 -79 -57 -61 0
-393 -79 -57 -62 0
-393 -80 -57 -62 0
-393 -78 -58 -60 0
-393 -78 -58 -61 0
-393 -78 -58 -62 0
-393 -79 -58 -61 0
-393 -79 -58 -62 0
-393 -80 -58 -62 0
-393 109 0
-393 -78 111 0
-393 -79 112 0
-393 -80 113 0
-393 -123 0
-394 73 0
-394 -64 -69 0
-394 -42 -48 0
-394 -42 -49 0
-394 -42 -50 0
-394 -42 -51 0
-394 -43 -48 0
-394 -43 -49 0
-394 -43 -50 0
-394 -43 -51 0
-394 -53 -59 0
-394 -53 -60 0
-394 -53 -61 0
-394 -53 -62 0
-394 -54 -59 0
-394 -54 -60 0
-394 -54 -61 0
-394 -54 -62 0
-394 -74 -78 0
-394 -74 -79 0
-394 -74 -80 0
-394 -74 -81 0
-394 -75 -78 0
-394 -75 -79 0
-394 -75 -80 0
-394 -75 -81 0
-394 105 0
-394 110 0
-395 73 0
-395 -65 -69 0
-395 -43 -48 0
-395 -43 -49 0
-395 -43 -50 0
-395 -43 -51 0
-395 -44 -48 0
-395 -44 -49 0
-395 -44 -50 0
-395 -44 -51 0
-395 -54 -59 0
-395 -54 -60 0
-395 -54 -61 0
-395 -54 -62 0
-395 -55 -59 0
-395 -55 -60 0
-395 -55 -61 0
-395 -55 -62 0
-395 -74 -78 0
-395 -74 -79 0
-395 -74 -80 0
-395 -74 -81 0
-395 -75 -78 0
-395 -75 -79 0
-395 -75 -80 0
-395 -75 -81 0
-395 -76 -78 0
-395 -76 -79 0
-395 -76 -80 0
-395 -76 -81 0
-395 106 0
-395 110 0
-396 73 0
-396 -66 -69 0
-396 -44 -48 0
-396 -44 -49 0
-396 -44 -50 0
-396 -44 -51 0
-396 -45 -48 0
-396 -45 -49 0
-396 -45 -50 0
-396 -45 -51 0
-396 -55 -59 0
-396 -55 -60 0
-396 -55 -61 0
-396 -55 -62 0
-396 -56 -59 0
-396 -56 -60 0
-396 -56 -61 0
-396 -56 -62 0
-396 -74 -78 0
-396 -74 -79 0
-396 -74 -80 0
-396 -74 -81 0
-396 -75 -78 0
-396 -75 -79 0
-396 -75 -80 0
-396 -75 -81 0
-396 -76 -78 0
-396 -76 -79 0
-396 -76 -80 0
-396 -76 -81 0
-396 -77 -78 0
-396 -77 -79 0
-396 -77 -80 0
-396 -77 -81 0
-396 107 0
-396 110 0
-397 73 0
-397 -67 -69 0
-397 -45 -48 0
-397 -45 -49 0
-397 -45 -50 0
-397 -45 -51 0
-397 -46 -48 0
-397 -46 -49 0
-397 -46 -50 0
-397 -46 -51 0
-397 -56 -59 0
-397 -56 -60 0
-397 -56 -61 0
-397 -56 -62 0
-397 -57 -59 0
-397 -57 -60 0
-397 -57 -61 0
-397 -57 -62 0
-397 -75 -78 0
-397 -75 -79 0
-397 -75 -80 0
-397 -75 -81 0
-397 -76 -78 0
-397 -76 -79 0
-397 -76 -80 0
-397 -76 -81 0
-397 -77 -78 0
-397 -77 -79 0
-397 -77 -80 0
-397 -77 -81 0
-397 108 0
-397 110 0
-398 73 0
-398 -68 -69 0
-398 -46 -48 0
-398 -46 -49 0
-398 -46 -50 0
-398 -46 -51 0
-398 -47 -48 0
-398 -47 -49 0
-398 -47 -50 0
-398 -47 -51 0
-398 -57 -59 0
-398 -57 -60 0
-398 -57 -61 0
-398 -57 -62 0
-398 -58 -59 0
-398 -58 -60 0
-398 -58 -61 0
-398 -58 -62 0
-398 -76 -78 0
-398 -76 -79 0
-398 -76 -80 0
-398 -76 -81 0
-398 -77 -78 0
-398 -77 -79 0
-398 -77 -80 0
-398 -77 -81 0
-398 109 0
-398 110 0
-399 82 0
-399 -51 0
-399 -74 -48 -79 0
-399 -74 -49 -80 0
-399 -74 -50 -81 0
-399 -45 0
-399 -46 0
-399 -47 0
-399 -48 -53 -60 0
-399 -48 -53 -61 0
-399 -48 -53 -62 0
-399 -49 -53 -61 0
-399 -49 -53 -62 0
-399 -50 -53 -62 0
-399 -48 -54 -60 0
-399 -48 -54 -61 0
-399 -48 -54 -62 0
-399 -49 -54 -61 0
-399 -49 -54 -62 0
-399 -50 -54 -62 0
-399 -48 -55 -60 0
-399 -48 -55 -61 0
-399 -48 -55 -62 0
-399 -49 -55 -61 0
-399 -49 -55 -62 0
-399 -50 -55 -62 0
-399 -48 -64 -70 0
-399 -48 -64 -71 0
-399 -48 -64 -72 0
-399 -49 -64 -71 0
-399 -49 -64 -72 0
-399 -50 -64 -72 0
-399 -48 -65 -70 0
-399 -48 -65 -71 0
-399 -48 -65 -72 0
-399 -49 -65 -71 0
-399 -49 -65 -72 0
-399 -50 -65 -72 0
-399 -48 -66 -70 0
-399 -48 -66 -71 0
-399 -48 -66 -72 0
-399 -49 -66 -71 0
-399 -49 -66 -72 0
-399 -50 -66 -72 0
-399 115 0
-399 -48 120 0
-399 -49 121 0
-399 -50 122 0
-399 -93 0
-400 82 0
-400 -51 0
-400 -75 -48 -79 0
-400 -75 -49 -80 0
-400 -75 -50 -81 0
-400 -42 0
-400 -46 0
-400 -47 0
-400 -48 -54 -60 0
-400 -48 -54 -61 0
-400 -48 -54 -62 0
-400 -49 -54 -61 0
-400 -49 -54 -62 0
-400 -50 -54 -62 0
-400 -48 -55 -60 0
-400 -48 -55 -61 0
-400 -48 -55 -62 0
-400 -49 -55 -61 0
-400 -49 -55 -62 0
-400 -50 -55 -62 0
-400 -48 -56 -60 0
-400 -48 -56 -61 0
-400 -48 -56 -62 0
-400 -49 -56 -61 0
-400 -49 -56 -62 0
-400 -50 -56 -62 0
-400 -48 -64 -70 0
-400 -48 -64 -71 0
-400 -48 -64 -72 0
-400 -49 -64 -71 0
-400 -49 -64 -72 0
-400 -50 -64 -72 0
-400 -48 -65 -70 0
-400 -48 -65 -71 0
-400 -48 -65 -72 0
-400 -49 -65 -71 0
-400 -49 -65 -72 0
-400 -50 -65 -72 0
-400 -48 -66 -70 0
-400 -48 -66 -71 0
-400 -48 -66 -72 0
-400 -49 -66 -71 0
-400 -49 -66 -72 0
-400 -50 -66 -72 0
-400 -48 -67 -70 0
-400 -48 -67 -71 0
-400 -48 -67 -72 0
-400 -49 -67 -71 0
-400 -49 -67 -72 0
-400 -50 -67 -72 0
-400 116 0
-400 -48 120 0
-400 -49 121 0
-400 -50 122 0
-400 -93 0
-401 82 0
-401 -51 0
-401 -76 -48 -79 0
-401 -76 -49 -80 0
-401 -76 -50 -81 0
-401 -42 0
-401 -43 0
-401 -47 0
-401 -48 -55 -60 0
-401 -48 -55 -61 0
-401 -48 -55 -62 0
-401 -49 -55 -61 0
-401 -49 -55 -62 0
-401 -50 -55 -62 0
-401 -48 -56 -60 0
-401 -48 -56 -61 0
-401 -48 -56 -62 0
-401 -49 -56 -61 0
-401 -49 -56 -62 0
-401 -50 -56 -62 0
-401 -48 -57 -60 0
-401 -48 -57 -61 0
-401 -48 -57 -62 0
-401 -49 -57 -61 0
-401 -49 -57 -62 0
-401 -50 -57 -62 0
-401 -48 -65 -70 0
-401 -48 -65 -71 0
-401 -48 -65 -72 0
-401 -49 -65 -71 0
-401 -49 -65 -72 0
-401 -50 -65 -72 0
-401 -48 -66 -70 0
-401 -48 -66 -71 0
-401 -48 -66 -72 0
-401 -49 -66 -71 0
-401 -49 -66 -72 0
-401 -50 -66 -72 0
-401 -48 -67 -70 0
-401 -48 -67 -71 0
-401 -48 -67 -72 0
-401 -49 -67 -71 0
-401 -49 -67 -72 0
-401 -50 -67 -72 0
-401 -48 -68 -70 0
-401 -48 -68 -71 0
-401 -48 -68 -72 0
-401 -49 -68 -71 0
-401 -49 -68 -72 0
-401 -50 -68 -72 0
-401 117 0
-401 -48 120 0
-401 -49 121 0
-401 -50 122 0
-401 -93 0
-402 82 0
-402 -51 0
-402 -77 -48 -79 0
-402 -77 -49 -80 0
-402 -77 -50 -81 0
-402 -42 0
-402 -43 0
-402 -44 0
-402 -48 -56 -60 0
-402 -48 -56 -61 0
-402 -48 -56 -62 0
-402 -49 -56 -61 0
-402 -49 -56 -62 0
-402 -50 -56 -62 0
-402 -48 -57 -60 0
-402 -48 -57 -61 0
-402 -48 -57 -62 0
-402 -49 -57 -61 0
-402 -49 -57 -62 0
-402 -50 -57 -62 0
-402 -48 -58 -60 0
-402 -48 -58 -61 0
-402 -48 -58 -62 0
-402 -49 -58 -61 0
-402 -49 -58 -62 0
-402 -50 -58 -62 0
-402 -48 -66 -70 0
-402 -48 -66 -71 0
-402 -48 -66 -72 0
-402 -49 -66 -71 0
-402 -49 -66 -72 0
-402 -50 -66 -72 0
-402 -48 -67 -70 0
-402 -48 -67 -71 0
-402 -48 -67 -72 0
-402 -49 -67 -71 0
-402 -49 -67 -72 0
-402 -50 -67 -72 0
-402 -48 -68 -70 0
-402 -48 -68 -71 0
-402 -48 -68 -72 0
-402 -49 -68 -71 0
-402 -49 -68 -72 0
-402 -50 -68 -72 0
-402 118 0
-402 -48 120 0
-402 -49 121 0
-402 -50 122 0
-402 -93 0
-403 82 0
-403 -62 0
-403 -74 -59 -79 0
-403 -74 -60 -80 0
-403 -74 -61 -81 0
-403 -56 0
-403 -57 0
-403 -58 0
-403 -59 -42 -49 0
-403 -59 -42 -50 0
-403 -59 -42 -51 0
-403 -60 -42 -50 0
-403 -60 -42 -51 0
-403 -61 -42 -51 0
-403 -59 -43 -49 0
-403 -59 -43 -50 0
-403 -59 -43 -51 0
-403 -60 -43 -50 0
-403 -60 -43 -51 0
-403 -61 -43 -51 0
-403 -59 -44 -49 0
-403 -59 -44 -50 0
-403 -59 -44 -51 0
-403 -60 -44 -50 0
-403 -60 -44 -51 0
-403 -61 -44 -51 0
-403 -59 -64 -70 0
-403 -59 -64 -71 0
-403 -59 -64 -72 0
-403 -60 -64 -71 0
-403 -60 -64 -72 0
-403 -61 -64 -72 0
-403 -59 -65 -70 0
-403 -59 -65 -71 0
-403 -59 -65 -72 0
-403 -60 -65 -71 0
-403 -60 -65 -72 0
-403 -61 -65 -72 0
-403 -59 -66 -70 0
-403 -59 -66 -71 0
-403 -59 -66 -72 0
-403 -60 -66 -71 0
-403 -60 -66 -72 0
-403 -61 -66 -72 0
-403 115 0
-403 -59 120 0
-403 -60 121 0
-403 -61 122 0
-403 -104 0
-404 82 0
-404 -62 0
-404 -75 -59 -79 0
-404 -75 -60 -80 0
-404 -75 -61 -81 0
-404 -53 0
-404 -57 0
-404 -58 0
-404 -59 -43 -49 0
-404 -59 -43 -50 0
-404 -59 -43 -51 0
-404 -60 -43 -50 0
-404 -60 -43 -51 0
-404 -61 -43 -51 0
-404 -59 -44 -49 0
-404 -59 -44 -50 0
-404 -59 -44 -51 0
-404 -60 -44 -50 0
-404 -60 -44 -51 0
-404 -61 -44 -51 0
-404 -59 -45 -49 0
-404 -59 -45 -50 0
-404 -59 -45 -51 0
-404 -60 -45 -50 0
-404 -60 -45 -51 0
-404 -61 -45 -51 0
-404 -59 -64 -70 0
-404 -59 -64 -71 0
-404 -59 -64 -72 0
-404 -60 -64 -71 0
-404 -60 -64 -72 0
-404 -61 -64 -72 0
-404 -59 -65 -70 0
-404 -59 -65 -71 0
-404 -59 -65 -72 0
-404 -60 -65 -71 0
-404 -60 -65 -72 0
-404 -61 -65 -72 0
-404 -59 -66 -70 0
-404 -59 -66 -71 0
-404 -59 -66 -72 0
-404 -60 -66 -71 0
-404 -60 -66 -72 0
-404 -61 -66 -72 0
-404 -59 -67 -70 0
-404 -59 -67 -71 0
-404 -59 -67 -72 0
-404 -60 -67 -71 0
-404 -60 -67 -72 0
-404 -61 -67 -72 0
-404 116 0
-404 -59 120 0
-404 -60 121 0
-404 -61 122 0
-404 -104 0
-405 82 0
-405 -62 0
-405 -76 -59 -79 0
-405 -76 -60 -80 0
-405 -76 -61 -81 0
-405 -53 0
-405 -54 0
-405 -58 0
-405 -59 -44 -49 0
-405 -59 -44 -50 0
-405 -59 -44 -51 0
-405 -60 -44 -50 0
-405 -60 -44 -51 0
-405 -61 -44 -51 0
-405 -59 -45 -49 0
-405 -59 -45 -50 0
-405 -59 -45 -51 0
-405 -60 -45 -50 0
-405 -60 -45 -51 0
-405 -61 -45 -51 0
-405 -59 -46 -49 0
-405 -59 -46 -50 0
-405 -59 -46 -51 0
-405 -60 -46 -50 0
-405 -60 -46 -51 0
-405 -61 -46 -51 0
-405 -59 -65 -70 0
-405 -59 -65 -71 0
-405 -59 -65 -72 0
-405 -60 -65 -71 0
-405 -60 -65 -72 0
-405 -61 -65 -72 0
-405 -59 -66 -70 0
-405 -59 -66 -71 0
-405 -59 -66 -72 0
-405 -60 -66 -71 0
-405 -60 -66 -72 0
-405 -61 -66 -72 0
-405 -59 -67 -70 0
-405 -59 -67 -71 0
-405 -59 -67 -72 0
-405 -60 -67 -71 0
-405 -60 -67 -72 0
-405 -61 -67 -72 0
-405 -59 -68 -70 0
-405 -59 -68 -71 0
-405 -59 -68 -72 0
-405 -60 -68 -71 0
-405 -60 -68 -72 0
-405 -61 -68 -72 0
-405 117 0
-405 -59 120 0
-405 -60 121 0
-405 -61 122 0
-405 -104 0
-406 82 0
-406 -62 0
-406 -77 -59 -79 0
-406 -77 -60 -80 0
-406 -77 -61 -81 0
-406 -53 0
-406 -54 0
-406 -55 0
-406 -59 -45 -49 0
-406 -59 -45 -50 0
-406 -59 -45 -51 0
-406 -60 -45 -50 0
-406 -60 -45 -51 0
-406 -61 -45 -51 0
-406 -59 -46 -49 0
-406 -59 -46 -50 0
-406 -59 -46 -51 0
-406 -60 -46 -50 0
-406 -60 -46 -51 0
-406 -61 -46 -51 0
-406 -59 -47 -49 0
-406 -59 -47 -50 0
-406 -59 -47 -51 0
-406 -60 -47 -50 0
-406 -60 -47 -51 0
-406 -61 -47 -51 0
-406 -59 -66 -70 0
-406 -59 -66 -71 0
-406 -59 -66 -72 0
-406 -60 -66 -71 0
-406 -60 -66 -72 0
-406 -61 -66 -72 0
-406 -59 -67 -70 0
-406 -59 -67 -71 0
-406 -59 -67 -72 0
-406 -60 -67 -71 0
-406 -60 -67 -72 0
-406 -61 -67 -72 0
-406 -59 -68 -70 0
-406 -59 -68 -71 0
-406 -59 -68 -72 0
-406 -60 -68 -71 0
-406 -60 -68 -72 0
-406 -61 -68 -72 0
-406 118 0
-406 -59 120 0
-406 -60 121 0
-406 -61 122 0
-406 -104 0
-407 82 0
-407 -72 0
-407 -74 -69 -79 0
-407 -74 -70 -80 0
-407 -74 -71 -81 0
-407 -67 0
-407 -68 0
-407 -69 -42 -49 0
-407 -69 -42 -50 0
-407 -69 -42 -51 0
-407 -70 -42 -50 0
-407 -70 -42 -51 0
-407 -71 -42 -51 0
-407 -69 -43 -49 0
-407 -69 -43 -50 0
-407 -69 -43 -51 0
-407 -70 -43 -50 0
-407 -70 -43 -51 0
-407 -71 -43 -51 0
-407 -69 -44 -49 0
-407 -69 -44 -50 0
-407 -69 -44 -51 0
-407 -70 -44 -50 0
-407 -70 -44 -51 0
-407 -71 -44 -51 0
-407 -69 -53 -60 0
-407 -69 -53 -61 0
-407 -69 -53 -62 0
-407 -70 -53 -61 0
-407 -70 -53 -62 0
-407 -71 -53 -62 0
-407 -69 -54 -60 0
-407 -69 -54 -61 0
-407 -69 -54 -62 0
-407 -70 -54 -61 0
-407 -70 -54 -62 0
-407 -71 -54 -62 0
-407 -69 -55 -60 0
-407 -69 -55 -61 0
-407 -69 -55 -62 0
-407 -70 -55 -61 0
-407 -70 -55 -62 0
-407 -71 -55 -62 0
-407 115 0
-407 -69 120 0
-407 -70 121 0
-407 -71 122 0
-407 -114 0
-408 82 0
-408 -72 0
-408 -75 -69 -79 0
-408 -75 -70 -80 0
-408 -75 -71 -81 0
-408 -68 0
-408 -69 -43 -49 0
-408 -69 -43 -50 0
-408 -69 -43 -51 0
-408 -70 -43 -50 0
-408 -70 -43 -51 0
-408 -71 -43 -51 0
-408 -69 -44 -49 0
-408 -69 -44 -50 0
-408 -69 -44 -51 0
-408 -70 -44 -50 0
-408 -70 -44 -51 0
-408 -71 -44 -51 0
-408 -69 -45 -49 0
-408 -69 -45 -50 0
-408 -69 -45 -51 0
-408 -70 -45 -50 0
-408 -70 -45 -51 0
-408 -71 -45 -51 0
-408 -69 -54 -60 0
-408 -69 -54 -61 0
-408 -69 -54 -62 0
-408 -70 -54 -61 0
-408 -70 -54 -62 0
-408 -71 -54 -62 0
-408 -69 -55 -60 0
-408 -69 -55 -61 0
-408 -69 -55 -62 0
-408 -70 -55 -61 0
-408 -70 -55 -62 0
-408 -71 -55 -62 0
-408 -69 -56 -60 0
-408 -69 -56 -61 0
-408 -69 -56 -62 0
-408 -70 -56 -61 0
-408 -70 -56 -62 0
-408 -71 -56 -62 0
-408 116 0
-408 -69 120 0
-408 -70 121 0
-408 -71 122 0
-408 -114 0
-409 82 0
-409 -72 0
-409 -76 -69 -79 0
-409 -76 -70 -80 0
-409 -76 -71 -81 0
-409 -64 0
-409 -69 -44 -49 0
-409 -69 -44 -50 0
-409 -69 -44 -51 0
-409 -70 -44 -50 0
-409 -70 -44 -51 0
-409 -71 -44 -51 0
-409 -69 -45 -49 0
-409 -69 -45 -50 0
-409 -69 -45 -51 0
-409 -70 -45 -50 0
-409 -70 -45 -51 0
-409 -71 -45 -51 0
-409 -69 -46 -49 0
-409 -69 -46 -50 0
-409 -69 -46 -51 0
-409 -70 -46 -50 0
-409 -70 -46 -51 0
-409 -71 -46 -51 0
-409 -69 -55 -60 0
-409 -69 -55 -61 0
-409 -69 -55 -62 0
-409 -70 -55 -61 0
-409 -70 -55 -62 0
-409 -71 -55 -62 0
-409 -69 -56 -60 0
-409 -69 -56 -61 0
-409 -69 -56 -62 0
-409 -70 -56 -61 0
-409 -70 -56 -62 0
-409 -71 -56 -62 0
-409 -69 -57 -60 0
-409 -69 -57 -61 0
-409 -69 -57 -62 0
-409 -70 -57 -61 0
-409 -70 -57 -62 0
-409 -71 -57 -62 0
-409 117 0
-409 -69 120 0
-409 -70 121 0
-409 -71 122 0
-409 -114 0
-410 82 0
-410 -72 0
-410 -77 -69 -79 0
-410 -77 -70 -80 0
-410 -77 -71 -81 0
-410 -64 0
-410 -65 0
-410 -69 -45 -49 0
-410 -69 -45 -50 0
-410 -69 -45 -51 0
-410 -70 -45 -50 0
-410 -70 -45 -51 0
-410 -71 -45 -51 0
-410 -69 -46 -49 0
-410 -69 -46 -50 0
-410 -69 -46 -51 0
-410 -70 -46 -50 0
-410 -70 -46 -51 0
-410 -71 -46 -51 0
-410 -69 -47 -49 0
-410 -69 -47 -50 0
-410 -69 -47 -51 0
-410 -70 -47 -50 0
-410 -70 -47 -51 0
-410 -71 -47 -51 0
-410 -69 -56 -60 0
-410 -69 -56 -61 0
-410 -69 -56 -62 0
-410 -70 -56 -61 0
-410 -70 -56 -62 0
-410 -71 -56 -62 0
-410 -69 -57 -60 0
-410 -69 -57 -61 0
-410 -69 -57 -62 0
-410 -70 -57 -61 0
-410 -70 -57 -62 0
-410 -71 -57 -62 0
-410 -69 -58 -60 0
-410 -69 -58 -61 0
-410 -69 -58 -62 0
-410 -70 -58 -61 0
-410 -70 -58 -62 0
-410 -71 -58 -62 0
-410 118 0
-410 -69 120 0
-410 -70 121 0
-410 -71 122 0
-410 -114 0
-411 82 0
-411 -74 -78 0
-411 -42 -48 0
-411 -42 -49 0
-411 -42 -50 0
-411 -42 -51 0
-411 -43 -48 0
-411 -43 -49 0
-411 -43 -50 0
-411 -43 -51 0
-411 -44 -48 0
-411 -44 -49 0
-411 -44 -50 0
-411 -44 -51 0
-411 -53 -59 0
-411 -53 -60 0
-411 -53 -61 0
-411 -53 -62 0
-411 -54 -59 0
-411 -54 -60 0
-411 -54 -61 0
-411 -54 -62 0
-411 -55 -59 0
-411 -55 -60 0
-411 -55 -61 0
-411 -55 -62 0
-411 -64 -69 0
-411 -64 -70 0
-411 -64 -71 0
-411 -64 -72 0
-411 -65 -69 0
-411 -65 -70 0
-411 -65 -71 0
-411 -65 -72 0
-411 -66 -69 0
-411 -66 -70 0
-411 -66 -71 0
-411 -66 -72 0
-411 115 0
-411 119 0
-412 82 0
-412 -75 -78 0
-412 -43 -48 0
-412 -43 -49 0
-412 -43 -50 0
-412 -43 -51 0
-412 -44 -48 0
-412 -44 -49 0
-412 -44 -50 0
-412 -44 -51 0
-412 -45 -48 0
-412 -45 -49 0
-412 -45 -50 0
-412 -45 -51 0
-412 -54 -59 0
-412 -54 -60 0
-412 -54 -61 0
-412 -54 -62 0
-412 -55 -59 0
-412 -55 -60 0
-412 -55 -61 0
-412 -55 -62 0
-412 -56 -59 0
-412 -56 -60 0
-412 -56 -61 0
-412 -56 -62 0
-412 -64 -69 0
-412 -64 -70 0
-412 -64 -71 0
-412 -64 -72 0
-412 -65 -69 0
-412 -65 -70 0
-412 -65 -71 0
-412 -65 -72 0
-412 -66 -69 0
-412 -66 -70 0
-412 -66 -71 0
-412 -66 -72 0
-412 -67 -69 0
-412 -67 -70 0
-412 -67 -71 0
-412 -67 -72 0
-412 116 0
-412 119 0
-413 82 0
-413 -76 -78 0
-413 -44 -48 0
-413 -44 -49 0
-413 -44 -50 0
-413 -44 -51 0
-413 -45 -48 0
-413 -45 -49 0
-413 -45 -50 0
-413 -45 -51 0
-413 -46 -48 0
-413 -46 -49 0
-413 -46 -50 0
-413 -46 -51 0
-413 -55 -59 0
-413 -55 -60 0
-413 -55 -61 0
-413 -55 -62 0
-413 -56 -59 0
-413 -56 -60 0
-413 -56 -61 0
-413 -56 -62 0
-413 -57 -59 0
-413 -57 -60 0
-413 -57 -61 0
-413 -57 -62 0
-413 -65 -69 0
-413 -65 -70 0
-413 -65 -71 0
-413 -65 -72 0
-413 -66 -69 0
-413 -66 -70 0
-413 -66 -71 0
-413 -66 -72 0
-413 -67 -69 0
-413 -67 -70 0
-413 -67 -71 0
-413 -67 -72 0
-413 -68 -69 0
-413 -68 -70 0
-413 -68 -71 0
-413 -68 -72 0
-413 117 0
-413 119 0
-414 82 0
-414 -77 -78 0
-414 -45 -48 0
-414 -45 -49 0
-414 -45 -50 0
-414 -45 -51 0
-414 -46 -48 0
-414 -46 -49 0
-414 -46 -50 0
-414 -46 -51 0
-414 -47 -48 0
-414 -47 -49 0
-414 -47 -50 0
-414 -47 -51 0
-414 -56 -59 0
-414 -56 -60 0
-414 -56 -61 0
-414 -56 -62 0
-414 -57 -59 0
-414 -57 -60 0
-414 -57 -61 0
-414 -57 -62 0
-414 -58 -59 0
-414 -58 -60 0
-414 -58 -61 0
-414 -58 -62 0
-414 -66 -69 0
-414 -66 -70 0
-414 -66 -71 0
-414 -66 -72 0
-414 -67 -69 0
-414 -67 -70 0
-414 -67 -71 0
-414 -67 -72 0
-414 -68 -69 0
-414 -68 -70 0
-414 -68 -71 0
-414 -68 -72 0
-414 118 0
-414 119 0
-415 93 0
-415 -103 0
-415 -83 -100 -90 0
-415 -83 -101 -91 0
-415 -83 -102 -92 0
-415 -95 0
-415 -96 0
-415 -97 0
-415 -98 0
-415 -99 0
-415 -100 -105 -111 0
-415 -100 -105 -112 0
-415 -100 -105 -113 0
-415 -101 -105 -112 0
-415 -101 -105 -113 0
-415 -102 -105 -113 0
-415 -100 -115 -120 0
-415 -100 -115 -121 0
-415 -100 -115 -122 0
-415 -101 -115 -121 0
-415 -101 -115 -122 0
-415 -102 -115 -122 0
-415 124 0
-415 -100 131 0
-415 -101 132 0
-415 -102 133 0
-415 -145 0
-416 93 0
-416 -103 0
-416 -84 -100 -90 0
-416 -84 -101 -91 0
-416 -84 -102 -92 0
-416 -94 0
-416 -96 0
-416 -97 0
-416 -98 0
-416 -99 0
-416 -100 -105 -111 0
-416 -100 -105 -112 0
-416 -100 -105 -113 0
-416 -101 -105 -112 0
-416 -101 -105 -113 0
-416 -102 -105 -113 0
-416 -100 -106 -111 0
-416 -100 -106 -112 0
-416 -100 -106 -113 0
-416 -101 -106 -112 0
-416 -101 -106 -113 0
-416 -102 -106 -113 0
-416 -100 -115 -120 0
-416 -100 -115 -121 0
-416 -100 -115 -122 0
-416 -101 -115 -121 0
-416 -101 -115 -122 0
-416 -102 -115 -122 0
-416 -100 -116 -120 0
-416 -100 -116 -121 0
-416 -100 -116 -122 0
-416 -101 -116 -121 0
-416 -101 -116 -122 0
-416 -102 -116 -122 0
-416 125 0
-416 -100 131 0
-416 -101 132 0
-416 -102 133 0
-416 -145 0
-417 93 0
-417 -103 0
-417 -85 -100 -90 0
-417 -85 -101 -91 0
-417 -85 -102 -92 0
-417 -94 0
-417 -95 0
-417 -97 0
-417 -98 0
-417 -99 0
-417 -100 -106 -111 0
-417 -100 -106 -112 0
-417 -100 -106 -113 0
-417 -101 -106 -112 0
-417 -101 -106 -113 0
-417 -102 -106 -113 0
-417 -100 -107 -111 0
-417 -100 -107 -112 0
-417 -100 -107 -113 0
-417 -101 -107 -112 0
-417 -101 -107 -113 0
-417 -102 -107 -113 0
-417 -100 -115 -120 0
-417 -100 -115 -121 0
-417 -100 -115 -122 0
-417 -101 -115 -121 0
-417 -101 -115 -122 0
-417 -102 -115 -122 0
-417 -100 -116 -120 0
-417 -100 -116 -121 0
-417 -100 -116 -122 0
-417 -101 -116 -121 0
-417 -101 -116 -122 0
-417 -102 -116 -122 0
-417 -100 -117 -120 0
-417 -100 -117 -121 0
-417 -100 -117 -122 0
-417 -101 -117 -121 0
-417 -101 -117 -122 0
-417 -102 -117 -122 0
-417 126 0
-417 -100 131 0
-417 -101 132 0
-417 -102 133 0
-417 -145 0
-418 93 0
-418 -103 0
-418 -86 -100 -90 0
-418 -86 -101 -91 0
-418 -86 -102 -92 0
-418 -94 0
-418 -95 0
-418 -96 0
-418 -98 0
-418 -99 0
-418 -100 -107 -111 0
-418 -100 -107 -112 0
-418 -100 -107 -113 0
-418 -101 -107 -112 0
-418 -101 -107 -113 0
-418 -102 -107 -113 0
-418 -100 -108 -111 0
-418 -100 -108 -112 0
-418 -100 -108 -113 0
-418 -101 -108 -112 0
-418 -101 -108 -113 0
-418 -102 -108 -113 0
-418 -100 -116 -120 0
-418 -100 -116 -121 0
-418 -100 -116 -122 0
-418 -101 -116 -121 0
-418 -101 -116 -122 0
-418 -102 -116 -122 0
-418 -100 -117 -120 0
-418 -100 -117 -121 0
-418 -100 -117 -122 0
-418 -101 -117 -121 0
-418 -101 -117 -122 0
-418 -102 -117 -122 0
-418 -100 -118 -120 0
-418 -100 -118 -121 0
-418 -100 -118 -122 0
-418 -101 -118 -121 0
-418 -101 -118 -122 0
-418 -102 -118 -122 0
-418 127 0
-418 -100 131 0
-418 -101 132 0
-418 -102 133 0
-418 -145 0
-419 93 0
-419 -103 0
-419 -87 -100 -90 0
-419 -87 -101 -91 0
-419 -87 -102 -92 0
-419 -94 0
-419 -95 0
-419 -96 0
-419 -97 0
-419 -99 0
-419 -100 -108 -111 0
-419 -100 -108 -112 0
-419 -100 -108 -113 0
-419 -101 -108 -112 0
-419 -101 -108 -113 0
-419 -102 -108 -113 0
-419 -100 -109 -111 0
-419 -100 -109 -112 0
-419 -100 -109 -113 0
-419 -101 -109 -112 0
-419 -101 -109 -113 0
-419 -102 -109 -113 0
-419 -100 -117 -120 0
-419 -100 -117 -121 0
-419 -100 -117 -122 0
-419 -101 -117 -121 0
-419 -101 -117 -122 0
-419 -102 -117 -122 0
-419 -100 -118 -120 0
-419 -100 -118 -121 0
-419 -100 -118 -122 0
-419 -101 -118 -121 0
-419 -101 -118 -122 0
-419 -102 -118 -122 0
-419 128 0
-419 -100 131 0
-419 -101 132 0
-419 -102 133 0
-419 -145 0
-420 93 0
-420 -103 0
-420 -88 -100 -90 0
-420 -88 -101 -91 0
-420 -88 -102 -92 0
-420 -94 0
-420 -95 0
-420 -96 0
-420 -97 0
-420 -98 0
-420 -100 -109 -111 0
-420 -100 -109 -112 0
-420 -100 -109 -113 0
-420 -101 -109 -112 0
-420 -101 -109 -113 0
-420 -102 -109 -113 0
-420 -100 -118 -120 0
-420 -100 -118 -121 0
-420 -100 -118 -122 0
-420 -101 -118 -121 0
-420 -101 -118 -122 0
-420 -102 -118 -122 0
-420 129 0
-420 -100 131 0
-420 -101 132 0
-420 -102 133 0
-420 -145 0
-421 93 0
-421 -113 0
-421 -83 -110 -90 0
-421 -83 -111 -91 0
-421 -83 -112 -92 0
-421 -106 0
-421 -107 0
-421 -108 0
-421 -109 0
-421 -110 -94 -101 0
-421 -110 -94 -102 0
-421 -110 -94 -103 0
-421 -111 -94 -102 0
-421 -111 -94 -103 0
-421 -112 -94 -103 0
-421 -110 -115 -120 0
-421 -110 -115 -121 0
-421 -110 -115 -122 0
-421 -111 -115 -121 0
-421 -111 -115 -122 0
-421 -112 -115 -122 0
-421 124 0
-421 -110 131 0
-421 -111 132 0
-421 -112 133 0
-421 -155 0
-422 93 0
-422 -113 0
-422 -84 -110 -90 0
-422 -84 -111 -91 0
-422 -84 -112 -92 0
-422 -107 0
-422 -108 0
-422 -109 0
-422 -110 -95 -101 0
-422 -110 -95 -102 0
-422 -110 -95 -103 0
-422 -111 -95 -102 0
-422 -111 -95 -103 0
-422 -112 -95 -103 0
-422 -110 -115 -120 0
-422 -110 -115 -121 0
-422 -110 -115 -122 0
-422 -111 -115 -121 0
-422 -111 -115 -122 0
-422 -112 -115 -122 0
-422 -110 -116 -120 0
-422 -110 -116 -121 0
-422 -110 -116 -122 0
-422 -111 -116 -121 0
-422 -111 -116 -122 0
-422 -112 -116 -122 0
-422 125 0
-422 -110 131 0
-422 -111 132 0
-422 -112 133 0
-422 -155 0
-423 93 0
-423 -113 0
-423 -85 -110 -90 0
-423 -85 -111 -91 0
-423 -85 -112 -92 0
-423 -105 0
-423 -108 0
-423 -109 0
-423 -110 -96 -101 0
-423 -110 -96 -102 0
-423 -110 -96 -103 0
-423 -111 -96 -102 0
-423 -111 -96 -103 0
-423 -112 -96 -103 0
-423 -110 -115 -120 0
-423 -110 -115 -121 0
-423 -110 -115 -122 0
-423 -111 -115 -121 0
-423 -111 -115 -122 0
-423 -112 -115 -122 0
-423 -110 -116 -120 0
-423 -110 -116 -121 0
-423 -110 -116 -122 0
-423 -111 -116 -121 0
-423 -111 -116 -122 0
-423 -112 -116 -122 0
-423 -110 -117 -120 0
-423 -110 -117 -121 0
-423 -110 -117 -122 0
-423 -111 -117 -121 0
-423 -111 -117 -122 0
-423 -112 -117 -122 0
-423 126 0
-423 -110 131 0
-423 -111 132 0
-423 -112 133 0
-423 -155 0
-424 93 0
-424 -113 0
-424 -86 -110 -90 0
-424 -86 -111 -91 0
-424 -86 -112 -92 0
-424 -105 0
-424 -106 0
-424 -109 0
-424 -110 -97 -101 0
-424 -110 -97 -102 0
-424 -110 -97 -103 0
-424 -111 -97 -102 0
-424 -111 -97 -103 0
-424 -112 -97 -103 0
-424 -110 -116 -120 0
-424 -110 -116 -121 0
-424 -110 -116 -122 0
-424 -111 -116 -121 0
-424 -111 -116 -122 0
-424 -112 -116 -122 0
-424 -110 -117 -120 0
-424 -110 -117 -121 0
-424 -110 -117 -122 0
-424 -111 -117 -121 0
-424 -111 -117 -122 0
-424 -112 -117 -122 0
-424 -110 -118 -120 0
-424 -110 -118 -121 0
-424 -110 -118 -122 0
-424 -111 -118 -121 0
-424 -111 -118 -122 0
-424 -112 -118 -122 0
-424 127 0
-424 -110 131 0
-424 -111 132 0
-424 -112 133 0
-424 -155 0
-425 93 0
-425 -113 0
-425 -87 -110 -90 0
-425 -87 -111 -91 0
-425 -87 -112 -92 0
-425 -105 0
-425 -106 0
-425 -107 0
-425 -110 -98 -101 0
-425 -110 -98 -102 0
-425 -110 -98 -103 0
-425 -111 -98 -102 0
-425 -111 -98 -103 0
-425 -112 -98 -103 0
-425 -110 -117 -120 0
-425 -110 -117 -121 0
-425 -110 -117 -122 0
-425 -111 -117 -121 0
-425 -111 -117 -122 0
-425 -112 -117 -122 0
-425 -110 -118 -120 0
-425 -110 -118 -121 0
-425 -110 -118 -122 0
-425 -111 -118 -121 0
-425 -111 -118 -122 0
-425 -112 -118 -122 0
-425 128 0
-425 -110 131 0
-425 -111 132 0
-425 -112 133 0
-425 -155 0
-426 93 0
-426 -113 0
-426 -88 -110 -90 0
-426 -88 -111 -91 0
-426 -88 -112 -92 0
-426 -105 0
-426 -106 0
-426 -107 0
-426 -108 0
-426 -110 -99 -101 0
-426 -110 -99 -102 0
-426 -110 -99 -103 0
-426 -111 -99 -102 0
-426 -111 -99 -103 0
-426 -112 -99 -103 0
-426 -110 -118 -120 0
-426 -110 -118 -121 0
-426 -110 -118 -122 0
-426 -111 -118 -121 0
-426 -111 -118 -122 0
-426 -112 -118 -122 0
-426 129 0
-426 -110 131 0
-426 -111 132 0
-426 -112 133 0
-426 -155 0
-427 93 0
-427 -122 0
-427 -83 -119 -90 0
-427 -83 -120 -91 0
-427 -83 -121 -92 0
-427 -116 0
-427 -117 0
-427 -118 0
-427 -119 -94 -101 0
-427 -119 -94 -102 0
-427 -119 -94 -103 0
-427 -120 -94 -102 0
-427 -120 -94 -103 0
-427 -121 -94 -103 0
-427 -119 -105 -111 0
-427 -119 -105 -112 0
-427 -119 -105 -113 0
-427 -120 -105 -112 0
-427 -120 -105 -113 0
-427 -121 -105 -113 0
-427 124 0
-427 -119 131 0
-427 -120 132 0
-427 -121 133 0
-427 -164 0
-428 93 0
-428 -122 0
-428 -84 -119 -90 0
-428 -84 -120 -91 0
-428 -84 -121 -92 0
-428 -117 0
-428 -118 0
-428 -119 -95 -101 0
-428 -119 -95 -102 0
-428 -119 -95 -103 0
-428 -120 -95 -102 0
-428 -120 -95 -103 0
-428 -121 -95 -103 0
-428 -119 -105 -111 0
-428 -119 -105 -112 0
-428 -119 -105 -113 0
-428 -120 -105 -112 0
-428 -120 -105 -113 0
-428 -121 -105 -113 0
-428 -119 -106 -111 0
-428 -119 -106 -112 0
-428 -119 -106 -113 0
-428 -120 -106 -112 0
-428 -120 -106 -113 0
-428 -121 -106 -113 0
-428 125 0
-428 -119 131 0
-428 -120 132 0
-428 -121 133 0
-428 -164 0
-429 93 0
-429 -122 0
-429 -85 -119 -90 0
-429 -85 -120 -91 0
-429 -85 -121 -92 0
-429 -118 0
-429 -119 -96 -101 0
-429 -119 -96 -102 0
-429 -119 -96 -103 0
-429 -120 -96 -102 0
-429 -120 -96 -103 0
-429 -121 -96 -103 0
-429 -119 -106 -111 0
-429 -119 -106 -112 0
-429 -119 -106 -113 0
-429 -120 -106 -112 0
-429 -120 -106 -113 0
-429 -121 -106 -113 0
-429 -119 -107 -111 0
-429 -119 -107 -112 0
-429 -119 -107 -113 0
-429 -120 -107 -112 0
-429 -120 -107 -113 0
-429 -121 -107 -113 0
-429 126 0
-429 -119 131 0
-429 -120 132 0
-429 -121 133 0
-429 -164 0
-430 93 0
-430 -122 0
-430 -86 -119 -90 0
-430 -86 -120 -91 0
-430 -86 -121 -92 0
-430 -115 0
-430 -119 -97 -101 0
-430 -119 -97 -102 0
-430 -119 -97 -103 0
-430 -120 -97 -102 0
-430 -120 -97 -103 0
-430 -121 -97 -103 0
-430 -119 -107 -111 0
-430 -119 -107 -112 0
-430 -119 -107 -113 0
-430 -120 -107 -112 0
-430 -120 -107 -113 0
-430 -121 -107 -113 0
-430 -119 -108 -111 0
-430 -119 -108 -112 0
-430 -119 -108 -113 0
-430 -120 -108 -112 0
-430 -120 -108 -113 0
-430 -121 -108 -113 0
-430 127 0
-430 -119 131 0
-430 -120 132 0
-430 -121 133 0
-430 -164 0
-431 93 0
-431 -122 0
-431 -87 -119 -90 0
-431 -87 -120 -91 0
-431 -87 -121 -92 0
-431 -115 0
-431 -116 0
-431 -119 -98 -101 0
-431 -119 -98 -102 0
-431 -119 -98 -103 0
-431 -120 -98 -102 0
-431 -120 -98 -103 0
-431 -121 -98 -103 0
-431 -119 -108 -111 0
-431 -119 -108 -112 0
-431 -119 -108 -113 0
-431 -120 -108 -112 0
-431 -120 -108 -113 0
-431 -121 -108 -113 0
-431 -119 -109 -111 0
-431 -119 -109 -112 0
-431 -119 -109 -113 0
-431 -120 -109 -112 0
-431 -120 -109 -113 0
-431 -121 -109 -113 0
-431 128 0
-431 -119 131 0
-431 -120 132 0
-431 -121 133 0
-431 -164 0
-432 93 0
-432 -122 0
-432 -88 -119 -90 0
-432 -88 -120 -91 0
-432 -88 -121 -92 0
-432 -115 0
-432 -116 0
-432 -117 0
-432 -119 -99 -101 0
-432 -119 -99 -102 0
-432 -119 -99 -103 0
-432 -120 -99 -102 0
-432 -120 -99 -103 0
-432 -121 -99 -103 0
-432 -119 -109 -111 0
-432 -119 -109 -112 0
-432 -119 -109 -113 0
-432 -120 -109 -112 0
-432 -120 -109 -113 0
-432 -121 -109 -113 0
-432 129 0
-432 -119 131 0
-432 -120 132 0
-432 -121 133 0
-432 -164 0
-433 93 0
-433 -83 -89 0
-433 -94 -100 0
-433 -94 -101 0
-433 -94 -102 0
-433 -94 -103 0
-433 -105 -110 0
-433 -105 -111 0
-433 -105 -112 0
-433 -105 -113 0
-433 -115 -119 0
-433 -115 -120 0
-433 -115 -121 0
-433 -115 -122 0
-433 124 0
-433 130 0
-434 93 0
-434 -84 -89 0
-434 -95 -100 0
-434 -95 -101 0
-434 -95 -102 0
-434 -95 -103 0
-434 -105 -110 0
-434 -105 -111 0
-434 -105 -112 0
-434 -105 -113 0
-434 -106 -110 0
-434 -106 -111 0
-434 -106 -112 0
-434 -106 -113 0
-434 -115 -119 0
-434 -115 -120 0
-434 -115 -121 0
-434 -115 -122 0
-434 -116 -119 0
-434 -116 -120 0
-434 -116 -121 0
-434 -116 -122 0
-434 125 0
-434 130 0
-435 93 0
-435 -85 -89 0
-435 -96 -100 0
-435 -96 -101 0
-435 -96 -102 0
-435 -96 -103 0
-435 -106 -110 0
-435 -106 -111 0
-435 -106 -112 0
-435 -106 -113 0
-435 -107 -110 0
-435 -107 -111 0
-435 -107 -112 0
-435 -107 -113 0
-435 -115 -119 0
-435 -115 -120 0
-435 -115 -121 0
-435 -115 -122 0
-435 -116 -119 0
-435 -116 -120 0
-435 -116 -121 0
-435 -116 -122 0
-435 -117 -119 0
-435 -117 -120 0
-435 -117 -121 0
-435 -117 -122 0
-435 126 0
-435 130 0
-436 93 0
-436 -86 -89 0
-436 -97 -100 0
-436 -97 -101 0
-436 -97 -102 0
-436 -97 -103 0
-436 -107 -110 0
-436 -107 -111 0
-436 -107 -112 0
-436 -107 -113 0
-436 -108 -110 0
-436 -108 -111 0
-436 -108 -112 0
-436 -108 -113 0
-436 -116 -119 0
-436 -116 -120 0
-436 -116 -121 0
-436 -116 -122 0
-436 -117 -119 0
-436 -117 -120 0
-436 -117 -121 0
-436 -117 -122 0
-436 -118 -119 0
-436 -118 -120 0
-436 -118 -121 0
-436 -118 -122 0
-436 127 0
-436 130 0
-437 93 0
-437 -87 -89 0
-437 -98 -100 0
-437 -98 -101 0
-437 -98 -102 0
-437 -98 -103 0
-437 -108 -110 0
-437 -108 -111 0
-437 -108 -112 0
-437 -108 -113 0
-437 -109 -110 0
-437 -109 -111 0
-437 -109 -112 0
-437 -109 -113 0
-437 -117 -119 0
-437 -117 -120 0
-437 -117 -121 0
-437 -117 -122 0
-437 -118 -119 0
-437 -118 -120 0
-437 -118 -121 0
-437 -118 -122 0
-437 128 0
-437 130 0
-438 93 0
-438 -88 -89 0
-438 -99 -100 0
-438 -99 -101 0
-438 -99 -102 0
-438 -99 -103 0
-438 -109 -110 0
-438 -109 -111 0
-438 -109 -112 0
-438 -109 -113 0
-438 -118 -119 0
-438 -118 -120 0
-438 -118 -121 0
-438 -118 -122 0
-438 129 0
-438 130 0
-439 104 0
-439 -92 0
-439 -94 -89 -101 0
-439 -94 -90 -102 0
-439 -94 -91 -103 0
-439 -84 0
-439 -85 0
-439 -86 0
-439 -87 0
-439 -88 0
-439 -89 -105 -111 0
-439 -89 -105 -112 0
-439 -89 -105 -113 0
-439 -90 -105 -112 0
-439 -90 -105 -113 0
-439 -91 -105 -113 0
-439 -89 -115 -120 0
-439 -89 -115 -121 0
-439 -89 -115 -122 0
-439 -90 -115 -121 0
-439 -90 -115 -122 0
-439 -91 -115 -122 0
-439 135 0
-439 -89 142 0
-439 -90 143 0
-439 -91 144 0
-439 -134 0
-440 104 0
-440 -92 0
-440 -95 -89 -101 0
-440 -95 -90 -102 0
-440 -95 -91 -103 0
-440 -83 0
-440 -85 0
-440 -86 0
-440 -87 0
-440 -88 0
-440 -89 -105 -111 0
-440 -89 -105 -112 0
-440 -89 -105 -113 0
-440 -90 -105 -112 0
-440 -90 -105 -113 0
-440 -91 -105 -113 0
-440 -89 -106 -111 0
-440 -89 -106 -112 0
-440 -89 -106 -113 0
-440 -90 -106 -112 0
-440 -90 -106 -113 0
-440 -91 -106 -113 0
-440 -89 -115 -120 0
-440 -89 -115 -121 0
-440 -89 -115 -122 0
-440 -90 -115 -121 0
-440 -90 -115 -122 0
-440 -91 -115 -122 0
-440 -89 -116 -120 0
-440 -89 -116 -121 0
-440 -89 -116 -122 0
-440 -90 -116 -121 0
-440 -90 -116 -122 0
-440 -91 -116 -122 0
-440 136 0
-440 -89 142 0
-440 -90 143 0
-440 -91 144 0
-440 -134 0
-441 104 0
-441 -92 0
-441 -96 -89 -101 0
-441 -96 -90 -102 0
-441 -96 -91 -103 0
-441 -83 0
-441 -84 0
-441 -86 0
-441 -87 0
-441 -88 0
-441 -89 -106 -111 0
-441 -89 -106 -112 0
-441 -89 -106 -113 0
-441 -90 -106 -112 0
-441 -90 -106 -113 0
-441 -91 -106 -113 0
-441 -89 -107 -111 0
-441 -89 -107 -112 0
-441 -89 -107 -113 0
-441 -90 -107 -112 0
-441 -90 -107 -113 0
-441 -91 -107 -113 0
-441 -89 -115 -120 0
-441 -89 -115 -121 0
-441 -89 -115 -122 0
-441 -90 -115 -121 0
-441 -90 -115 -122 0
-441 -91 -115 -122 0
-441 -89 -116 -120 0
-441 -89 -116 -121 0
-441 -89 -116 -122 0
-441 -90 -116 -121 0
-441 -90 -116 -122 0
-441 -91 -116 -122 0
-441 -89 -117 -120 0
-441 -89 -117 -121 0
-441 -89 -117 -122 0
-441 -90 -117 -121 0
-441 -90 -117 -122 0
-441 -91 -117 -122 0
-441 137 0
-441 -89 142 0
-441 -90 143 0
-441 -91 144 0
-441 -134 0
-442 104 0
-442 -92 0
-442 -97 -89 -101 0
-442 -97 -90 -102 0
-442 -97 -91 -103 0
-442 -83 0
-442 -84 0
-442 -85 0
-442 -87 0
-442 -88 0
-442 -89 -107 -111 0
-442 -89 -107 -112 0
-442 -89 -107 -113 0
-442 -90 -107 -112 0
-442 -90 -107 -113 0
-442 -91 -107 -113 0
-442 -89 -108 -111 0
-442 -89 -108 -112 0
-442 -89 -108 -113 0
-442 -90 -108 -112 0
-442 -90 -108 -113 0
-442 -91 -108 -113 0
-442 -89 -116 -120 0
-442 -89 -116 -121 0
-442 -89 -116 -122 0
-442 -90 -116 -121 0
-442 -90 -116 -122 0
-442 -91 -116 -122 0
-442 -89 -117 -120 0
-442 -89 -117 -121 0
-442 -89 -117 -122 0
-442 -90 -117 -121 0
-442 -90 -117 -122 0
-442 -91 -117 -122 0
-442 -89 -118 -120 0
-442 -89 -118 -121 0
-442 -89 -118 -122 0
-442 -90 -118 -121 0
-442 -90 -118 -122 0
-442 -91 -118 -122 0
-442 138 0
-442 -89 142 0
-442 -90 143 0
-442 -91 144 0
-442 -134 0
-443 104 0
-443 -92 0
-443 -98 -89 -101 0
-443 -98 -90 -102 0
-443 -98 -91 -103 0
-443 -83 0
-443 -84 0
-443 -85 0
-443 -86 0
-443 -88 0
-443 -89 -108 -111 0
-443 -89 -108 -112 0
-443 -89 -108 -113 0
-443 -90 -108 -112 0
-443 -90 -108 -113 0
-443 -91 -108 -113 0
-443 -89 -109 -111 0
-443 -89 -109 -112 0
-443 -89 -109 -113 0
-443 -90 -109 -112 0
-443 -90 -109 -113 0
-443 -91 -109 -113 0
-443 -89 -117 -120 0
-443 -89 -117 -121 0
-443 -89 -117 -122 0
-443 -90 -117 -121 0
-443 -90 -117 -122 0
-443 -91 -117 -122 0
-443 -89 -118 -120 0
-443 -89 -118 -121 0
-443 -89 -118 -122 0
-443 -90 -118 -121 0
-443 -90 -118 -122 0
-443 -91 -118 -122 0
-443 139 0
-443 -89 142 0
-443 -90 143 0
-443 -91 144 0
-443 -134 0
-444 104 0
-444 -92 0
-444 -99 -89 -101 0
-444 -99 -90 -102 0
-444 -99 -91 -103 0
-444 -83 0
-444 -84 0
-444 -85 0
-444 -86 0
-444 -87 0
-444 -89 -109 -111 0
-444 -89 -109 -112 0
-444 -89 -109 -113 0
-444 -90 -109 -112 0
-444 -90 -109 -113 0
-444 -91 -109 -113 0
-444 -89 -118 -120 0
-444 -89 -118 -121 0
-444 -89 -118 -122 0
-444 -90 -118 -121 0
-444 -90 -118 -122 0
-444 -91 -118 -122 0
-444 140 0
-444 -89 142 0
-444 -90 143 0
-444 -91 144 0
-444 -134 0
-445 104 0
-445 -113 0
-445 -94 -110 -101 0
-445 -94 -111 -102 0
-445 -94 -112 -103 0
-445 -106 0
-445 -107 0
-445 -108 0
-445 -109 0
-445 -110 -83 -90 0
-445 -110 -83 -91 0
-445 -110 -83 -92 0
-445 -111 -83 -91 0
-445 -111 -83 -92 0
-445 -112 -83 -92 0
-445 -110 -115 -120 0
-445 -110 -115 -121 0
-445 -110 -115 -122 0
-445 -111 -115 -121 0
-445 -111 -115 -122 0
-445 -112 -115 -122 0
-445 135 0
-445 -110 142 0
-445 -111 143 0
-445 -112 144 0
-445 -155 0
-446 104 0
-446 -113 0
-446 -95 -110 -101 0
-446 -95 -111 -102 0
-446 -95 -112 -103 0
-446 -107 0
-446 -108 0
-446 -109 0
-446 -110 -84 -90 0
-446 -110 -84 -91 0
-446 -110 -84 -92 0
-446 -111 -84 -91 0
-446 -111 -84 -92 0
-446 -112 -84 -92 0
-446 -110 -115 -120 0
-446 -110 -115 -121 0
-446 -110 -115 -122 0
-446 -111 -115 -121 0
-446 -111 -115 -122 0
-446 -112 -115 -122 0
-446 -110 -116 -120 0
-446 -110 -116 -121 0
-446 -110 -116 -122 0
-446 -111 -116 -121 0
-446 -111 -116 -122 0
-446 -112 -116 -122 0
-446 136 0
-446 -110 142 0
-446 -111 143 0
-446 -112 144 0
-446 -155 0
-447 104 0
-447 -113 0
-447 -96 -110 -101 0
-447 -96 -111 -102 0
-447 -96 -112 -103 0
-447 -105 0
-447 -108 0
-447 -109 0
-447 -110 -85 -90 0
-447 -110 -85 -91 0
-447 -110 -85 -92 0
-447 -111 -85 -91 0
-447 -111 -85 -92 0
-447 -112 -85 -92 0
-447 -110 -115 -120 0
-447 -110 -115 -121 0
-447 -110 -115 -122 0
-447 -111 -115 -121 0
-447 -111 -115 -122 0
-447 -112 -115 -122 0
-447 -110 -116 -120 0
-447 -110 -116 -121 0
-447 -110 -116 -122 0
-447 -111 -116 -121 0
-447 -111 -116 -122 0
-447 -112 -116 -122 0
-447 -110 -117 -120 0
-447 -110 -117 -121 0
-447 -110 -117 -122 0
-447 -111 -117 -121 0
-447 -111 -117 -122 0
-447 -112 -117 -122 0
-447 137 0
-447 -110 142 0
-447 -111 143 0
-447 -112 144 0
-447 -155 0
-448 104 0
-448 -113 0
-448 -97 -110 -101 0
-448 -97 -111 -102 0
-448 -97 -112 -103 0
-448 -105 0
-448 -106 0
-448 -109 0
-448 -110 -86 -90 0
-448 -110 -86 -91 0
-448 -110 -86 -92 0
-448 -111 -86 -91 0
-448 -111 -86 -92 0
-448 -112 -86 -92 0
-448 -110 -116 -120 0
-448 -110 -116 -121 0
-448 -110 -116 -122 0
-448 -111 -116 -121 0
-448 -111 -116 -122 0
-448 -112 -116 -122 0
-448 -110 -117 -120 0
-448 -110 -117 -121 0
-448 -110 -117 -122 0
-448 -111 -117 -121 0
-448 -111 -117 -122 0
-448 -112 -117 -122 0
-448 -110 -118 -120 0
-448 -110 -118 -121 0
-448 -110 -118 -122 0
-448 -111 -118 -121 0
-448 -111 -118 -122 0
-448 -112 -118 -122 0
-448 138 0
-448 -110 142 0
-448 -111 143 0
-448 -112 144 0
-448 -155 0
-449 104 0
-449 -113 0
-449 -98 -110 -101 0
-449 -98 -111 -102 0
-449 -98 -112 -103 0
-449 -105 0
-449 -106 0
-449 -107 0
-449 -110 -87 -90 0
-449 -110 -87 -91 0
-449 -110 -87 -92 0
-449 -111 -87 -91 0
-449 -111 -87 -92 0
-449 -112 -87 -92 0
-449 -110 -117 -120 0
-449 -110 -117 -121 0
-449 -110 -117 -122 0
-449 -111 -117 -121 0
-449 -111 -117 -122 0
-449 -112 -117 -122 0
-449 -110 -118 -120 0
-449 -110 -118 -121 0
-449 -110 -118 -122 0
-449 -111 -118 -121 0
-449 -111 -118 -122 0
-449 -112 -118 -122 0
-449 139 0
-449 -110 142 0
-449 -111 143 0
-449 -112 144 0
-449 -155 0
-450 104 0
-450 -113 0
-450 -99 -110 -101 0
-450 -99 -111 -102 0
-450 -99 -112 -103 0
-450 -105 0
-450 -106 0
-450 -107 0
-450 -108 0
-450 -110 -88 -90 0
-450 -110 -88 -91 0
-450 -110 -88 -92 0
-450 -111 -88 -91 0
-450 -111 -88 -92 0
-450 -112 -88 -92 0
-450 -110 -118 -120 0
-450 -110 -118 -121 0
-450 -110 -118 -122 0
-450 -111 -118 -121 0
-450 -111 -118 -122 0
-450 -112 -118 -122 0
-450 140 0
-450 -110 142 0
-450 -111 143 0
-450 -112 144 0
-450 -155 0
-451 104 0
-451 -122 0
-451 -94 -119 -101 0
-451 -94 -120 -102 0
-451 -94 -121 -103 0
-451 -116 0
-451 -117 0
-451 -118 0
-451 -119 -83 -90 0
-451 -119 -83 -91 0
-451 -119 -83 -92 0
-451 -120 -83 -91 0
-451 -120 -83 -92 0
-451 -121 -83 -92 0
-451 -119 -105 -111 0
-451 -119 -105 -112 0
-451 -119 -105 -113 0
-451 -120 -105 -112 0
-451 -120 -105 -113 0
-451 -121 -105 -113 0
-451 135 0
-451 -119 142 0
-451 -120 143 0
-451 -121 144 0
-451 -164 0
-452 104 0
-452 -122 0
-452 -95 -119 -101 0
-452 -95 -120 -102 0
-452 -95 -121 -103 0
-452 -117 0
-452 -118 0
-452 -119 -84 -90 0
-452 -119 -84 -91 0
-452 -119 -84 -92 0
-452 -120 -84 -91 0
-452 -120 -84 -92 0
-452 -121 -84 -92 0
-452 -119 -105 -111 0
-452 -119 -105 -112 0
-452 -119 -105 -113 0
-452 -120 -105 -112 0
-452 -120 -105 -113 0
-452 -121 -105 -113 0
-452 -119 -106 -111 0
-452 -119 -106 -112 0
-452 -119 -106 -113 0
-452 -120 -106 -112 0
-452 -120 -106 -113 0
-452 -121 -106 -113 0
-452 136 0
-452 -119 142 0
-452 -120 143 0
-452 -121 144 0
-452 -164 0
-453 104 0
-453 -122 0
-453 -96 -119 -101 0
-453 -96 -120 -102 0
-453 -96 -121 -103 0
-453 -118 0
-453 -119 -85 -90 0
-453 -119 -85 -91 0
-453 -119 -85 -92 0
-453 -120 -85 -91 0
-453 -120 -85 -92 0
-453 -121 -85 -92 0
-453 -119 -106 -111 0
-453 -119 -106 -112 0
-453 -119 -106 -113 0
-453 -120 -106 -112 0
-453 -120 -106 -113 0
-453 -121 -106 -113 0
-453 -119 -107 -111 0
-453 -119 -107 -112 0
-453 -119 -107 -113 0
-453 -120 -107 -112 0
-453 -120 -107 -113 0
-453 -121 -107 -113 0
-453 137 0
-453 -119 142 0
-453 -120 143 0
-453 -121 144 0
-453 -164 0
-454 104 0
-454 -122 0
-454 -97 -119 -101 0
-454 -97 -120 -102 0
-454 -97 -121 -103 0
-454 -115 0
-454 -119 -86 -90 0
-454 -119 -86 -91 0
-454 -119 -86 -92 0
-454 -120 -86 -91 0
-454 -120 -86 -92 0
-454 -121 -86 -92 0
-454 -119 -107 -111 0
-454 -119 -107 -112 0
-454 -119 -107 -113 0
-454 -120 -107 -112 0
-454 -120 -107 -113 0
-454 -121 -107 -113 0
-454 -119 -108 -111 0
-454 -119 -108 -112 0
-454 -119 -108 -113 0
-454 -120 -108 -112 0
-454 -120 -108 -113 0
-454 -121 -108 -113 0
-454 138 0
-454 -119 142 0
-454 -120 143 0
-454 -121 144 0
-454 -164 0
-455 104 0
-455 -122 0
-455 -98 -119 -101 0
-455 -98 -120 -102 0
-455 -98 -121 -103 0
-455 -115 0
-455 -116 0
-455 -119 -87 -90 0
-455 -119 -87 -91 0
-455 -119 -87 -92 0
-455 -120 -87 -91 0
-455 -120 -87 -92 0
-455 -121 -87 -92 0
-455 -119 -108 -111 0
-455 -119 -108 -112 0
-455 -119 -108 -113 0
-455 -120 -108 -112 0
-455 -120 -108 -113 0
-455 -121 -108 -113 0
-455 -119 -109 -111 0
-455 -119 -109 -112 0
-455 -119 -109 -113 0
-455 -120 -109 -112 0
-455 -120 -109 -113 0
-455 -121 -109 -113 0
-455 139 0
-455 -119 142 0
-455 -120 143 0
-455 -121 144 0
-455 -164 0
-456 104 0
-456 -122 0
-456 -99 -119 -101 0
-456 -99 -120 -102 0
-456 -99 -121 -103 0
-456 -115 0
-456 -116 0
-456 -117 0
-456 -119 -88 -90 0
-456 -119 -88 -91 0
-456 -119 -88 -92 0
-456 -120 -88 -91 0
-456 -120 -88 -92 0
-456 -121 -88 -92 0
-456 -119 -109 -111 0
-456 -119 -109 -112 0
-456 -119 -109 -113 0
-456 -120 -109 -112 0
-456 -120 -109 -113 0
-456 -121 -109 -113 0
-456 140 0
-456 -119 142 0
-456 -120 143 0
-456 -121 144 0
-456 -164 0
-457 104 0
-457 -94 -100 0
-457 -83 -89 0
-457 -83 -90 0
-457 -83 -91 0
-457 -83 -92 0
-457 -105 -110 0
-457 -105 -111 0
-457 -105 -112 0
-457 -105 -113 0
-457 -115 -119 0
-457 -115 -120 0
-457 -115 -121 0
-457 -115 -122 0
-457 135 0
-457 141 0
-458 104 0
-458 -95 -100 0
-458 -84 -89 0
-458 -84 -90 0
-458 -84 -91 0
-458 -84 -92 0
-458 -105 -110 0
-458 -105 -111 0
-458 -105 -112 0
-458 -105 -113 0
-458 -106 -110 0
-458 -106 -111 0
-458 -106 -112 0
-458 -106 -113 0
-458 -115 -119 0
-458 -115 -120 0
-458 -115 -121 0
-458 -115 -122 0
-458 -116 -119 0
-458 -116 -120 0
-458 -116 -121 0
-458 -116 -122 0
-458 136 0
-458 141 0
-459 104 0
-459 -96 -100 0
-459 -85 -89 0
-459 -85 -90 0
-459 -85 -91 0
-459 -85 -92 0
-459 -106 -110 0
-459 -106 -111 0
-459 -106 -112 0
-459 -106 -113 0
-459 -107 -110 0
-459 -107 -111 0
-459 -107 -112 0
-459 -107 -113 0
-459 -115 -119 0
-459 -115 -120 0
-459 -115 -121 0
-459 -115 -122 0
-459 -116 -119 0
-459 -116 -120 0
-459 -116 -121 0
-459 -116 -122 0
-459 -117 -119 0
-459 -117 -120 0
-459 -117 -121 0
-459 -117 -122 0
-459 137 0
-459 141 0
-460 104 0
-460 -97 -100 0
-460 -86 -89 0
-460 -86 -90 0
-460 -86 -91 0
-460 -86 -92 0
-460 -107 -110 0
-460 -107 -111 0
-460 -107 -112 0
-460 -107 -113 0
-460 -108 -110 0
-460 -108 -111 0
-460 -108 -112 0
-460 -108 -113 0
-460 -116 -119 0
-460 -116 -120 0
-460 -116 -121 0
-460 -116 -122 0
-460 -117 -119 0
-460 -117 -120 0
-460 -117 -121 0
-460 -117 -122 0
-460 -118 -119 0
-460 -118 -120 0
-460 -118 -121 0
-460 -118 -122 0
-460 138 0
-460 141 0
-461 104 0
-461 -98 -100 0
-461 -87 -89 0
-461 -87 -90 0
-461 -87 -91 0
-461 -87 -92 0
-461 -108 -110 0
-461 -108 -111 0
-461 -108 -112 0
-461 -108 -113 0
-461 -109 -110 0
-461 -109 -111 0
-461 -109 -112 0
-461 -109 -113 0
-461 -117 -119 0
-461 -117 -120 0
-461 -117 -121 0
-461 -117 -122 0
-461 -118 -119 0
-461 -118 -120 0
-461 -118 -121 0
-461 -118 -122 0
-461 139 0
-461 141 0
-462 104 0
-462 -99 -100 0
-462 -88 -89 0
-462 -88 -90 0
-462 -88 -91 0
-462 -88 -92 0
-462 -109 -110 0
-462 -109 -111 0
-462 -109 -112 0
-462 -109 -113 0
-462 -118 -119 0
-462 -118 -120 0
-462 -118 -121 0
-462 -118 -122 0
-462 140 0
-462 141 0
-463 114 0
-463 -92 0
-463 -105 -89 -111 0
-463 -105 -90 -112 0
-463 -105 -91 -113 0
-463 -85 0
-463 -86 0
-463 -87 0
-463 -88 0
-463 -89 -94 -101 0
-463 -89 -94 -102 0
-463 -89 -94 -103 0
-463 -90 -94 -102 0
-463 -90 -94 -103 0
-463 -91 -94 -103 0
-463 -89 -95 -101 0
-463 -89 -95 -102 0
-463 -89 -95 -103 0
-463 -90 -95 -102 0
-463 -90 -95 -103 0
-463 -91 -95 -103 0
-463 -89 -115 -120 0
-463 -89 -115 -121 0
-463 -89 -115 -122 0
-463 -90 -115 -121 0
-463 -90 -115 -122 0
-463 -91 -115 -122 0
-463 -89 -116 -120 0
-463 -89 -116 -121 0
-463 -89 -116 -122 0
-463 -90 -116 -121 0
-463 -90 -116 -122 0
-463 -91 -116 -122 0
-463 146 0
-463 -89 152 0
-463 -90 153 0
-463 -91 154 0
-463 -134 0
-464 114 0
-464 -92 0
-464 -106 -89 -111 0
-464 -106 -90 -112 0
-464 -106 -91 -113 0
-464 -83 0
-464 -86 0
-464 -87 0
-464 -88 0
-464 -89 -95 -101 0
-464 -89 -95 -102 0
-464 -89 -95 -103 0
-464 -90 -95 -102 0
-464 -90 -95 -103 0
-464 -91 -95 -103 0
-464 -89 -96 -101 0
-464 -89 -96 -102 0
-464 -89 -96 -103 0
-464 -90 -96 -102 0
-464 -90 -96 -103 0
-464 -91 -96 -103 0
-464 -89 -115 -120 0
-464 -89 -115 -121 0
-464 -89 -115 -122 0
-464 -90 -115 -121 0
-464 -90 -115 -122 0
-464 -91 -115 -122 0
-464 -89 -116 -120 0
-464 -89 -116 -121 0
-464 -89 -116 -122 0
-464 -90 -116 -121 0
-464 -90 -116 -122 0
-464 -91 -116 -122 0
-464 -89 -117 -120 0
-464 -89 -117 -121 0
-464 -89 -117 -122 0
-464 -90 -117 -121 0
-464 -90 -117 -122 0
-464 -91 -117 -122 0
-464 147 0
-464 -89 152 0
-464 -90 153 0
-464 -91 154 0
-464 -134 0
-465 114 0
-465 -92 0
-465 -107 -89 -111 0
-465 -107 -90 -112 0
-465 -107 -91 -113 0
-465 -83 0
-465 -84 0
-465 -87 0
-465 -88 0
-465 -89 -96 -101 0
-465 -89 -96 -102 0
-465 -89 -96 -103 0
-465 -90 -96 -102 0
-465 -90 -96 -103 0
-465 -91 -96 -103 0
-465 -89 -97 -101 0
-465 -89 -97 -102 0
-465 -89 -97 -103 0
-465 -90 -97 -102 0
-465 -90 -97 -103 0
-465 -91 -97 -103 0
-465 -89 -115 -120 0
-465 -89 -115 -121 0
-465 -89 -115 -122 0
-465 -90 -115 -121 0
-465 -90 -115 -122 0
-465 -91 -115 -122 0
-465 -89 -116 -120 0
-465 -89 -116 -121 0
-465 -89 -116 -122 0
-465 -90 -116 -121 0
-465 -90 -116 -122 0
-465 -91 -116 -122 0
-465 -89 -117 -120 0
-465 -89 -117 -121 0
-465 -89 -117 -122 0
-465 -90 -117 -121 0
-465 -90 -117 -122 0
-465 -91 -117 -122 0
-465 -89 -118 -120 0
-465 -89 -118 -121 0
-465 -89 -118 -122 0
-465 -90 -118 -121 0
-465 -90 -118 -122 0
-465 -91 -118 -122 0
-465 148 0
-465 -89 152 0
-465 -90 153 0
-465 -91 154 0
-465 -134 0
-466 114 0
-466 -92 0
-466 -108 -89 -111 0
-466 -108 -90 -112 0
-466 -108 -91 -113 0
-466 -83 0
-466 -84 0
-466 -85 0
-466 -88 0
-466 -89 -97 -101 0
-466 -89 -97 -102 0
-466 -89 -97 -103 0
-466 -90 -97 -102 0
-466 -90 -97 -103 0
-466 -91 -97 -103 0
-466 -89 -98 -101 0
-466 -89 -98 -102 0
-466 -89 -98 -103 0
-466 -90 -98 -102 0
-466 -90 -98 -103 0
-466 -91 -98 -103 0
-466 -89 -116 -120 0
-466 -89 -116 -121 0
-466 -89 -116 -122 0
-466 -90 -116 -121 0
-466 -90 -116 -122 0
-466 -91 -116 -122 0
-466 -89 -117 -120 0
-466 -89 -117 -121 0
-466 -89 -117 -122 0
-466 -90 -117 -121 0
-466 -90 -117 -122 0
-466 -91 -117 -122 0
-466 -89 -118 -120 0
-466 -89 -118 -121 0
-466 -89 -118 -122 0
-466 -90 -118 -121 0
-466 -90 -118 -122 0
-466 -91 -118 -122 0
-466 149 0
-466 -89 152 0
-466 -90 153 0
-466 -91 154 0
-466 -134 0
-467 114 0
-467 -92 0
-467 -109 -89 -111 0
-467 -109 -90 -112 0
-467 -109 -91 -113 0
-467 -83 0
-467 -84 0
-467 -85 0
-467 -86 0
-467 -89 -98 -101 0
-467 -89 -98 -102 0
-467 -89 -98 -103 0
-467 -90 -98 -102 0
-467 -90 -98 -103 0
-467 -91 -98 -103 0
-467 -89 -99 -101 0
-467 -89 -99 -102 0
-467 -89 -99 -103 0
-467 -90 -99 -102 0
-467 -90 -99 -103 0
-467 -91 -99 -103 0
-467 -89 -117 -120 0
-467 -89 -117 -121 0
-467 -89 -117 -122 0
-467 -90 -117 -121 0
-467 -90 -117 -122 0
-467 -91 -117 -122 0
-467 -89 -118 -120 0
-467 -89 -118 -121 0
-467 -89 -118 -122 0
-467 -90 -118 -121 0
-467 -90 -118 -122 0
-467 -91 -118 -122 0
-467 150 0
-467 -89 152 0
-467 -90 153 0
-467 -91 154 0
-467 -134 0
-468 114 0
-468 -103 0
-468 -105 -100 -111 0
-468 -105 -101 -112 0
-468 -105 -102 -113 0
-468 -96 0
-468 -97 0
-468 -98 0
-468 -99 0
-468 -100 -83 -90 0
-468 -100 -83 -91 0
-468 -100 -83 -92 0
-468 -101 -83 -91 0
-468 -101 -83 -92 0
-468 -102 -83 -92 0
-468 -100 -84 -90 0
-468 -100 -84 -91 0
-468 -100 -84 -92 0
-468 -101 -84 -91 0
-468 -101 -84 -92 0
-468 -102 -84 -92 0
-468 -100 -115 -120 0
-468 -100 -115 -121 0
-468 -100 -115 -122 0
-468 -101 -115 -121 0
-468 -101 -115 -122 0
-468 -102 -115 -122 0
-468 -100 -116 -120 0
-468 -100 -116 -121 0
-468 -100 -116 -122 0
-468 -101 -116 -121 0
-468 -101 -116 -122 0
-468 -102 -116 -122 0
-468 146 0
-468 -100 152 0
-468 -101 153 0
-468 -102 154 0
-468 -145 0
-469 114 0
-469 -103 0
-469 -106 -100 -111 0
-469 -106 -101 -112 0
-469 -106 -102 -113 0
-469 -94 0
-469 -97 0
-469 -98 0
-469 -99 0
-469 -100 -84 -90 0
-469 -100 -84 -91 0
-469 -100 -84 -92 0
-469 -101 -84 -91 0
-469 -101 -84 -92 0
-469 -102 -84 -92 0
-469 -100 -85 -90 0
-469 -100 -85 -91 0
-469 -100 -85 -92 0
-469 -101 -85 -91 0
-469 -101 -85 -92 0
-469 -102 -85 -92 0
-469 -100 -115 -120 0
-469 -100 -115 -121 0
-469 -100 -115 -122 0
-469 -101 -115 -121 0
-469 -101 -115 -122 0
-469 -102 -115 -122 0
-469 -100 -116 -120 0
-469 -100 -116 -121 0
-469 -100 -116 -122 0
-469 -101 -116 -121 0
-469 -101 -116 -122 0
-469 -102 -116 -122 0
-469 -100 -117 -120 0
-469 -100 -117 -121 0
-469 -100 -117 -122 0
-469 -101 -117 -121 0
-469 -101 -117 -122 0
-469 -102 -117 -122 0
-469 147 0
-469 -100 152 0
-469 -101 153 0
-469 -102 154 0
-469 -145 0
-470 114 0
-470 -103 0
-470 -107 -100 -111 0
-470 -107 -101 -112 0
-470 -107 -102 -113 0
-470 -94 0
-470 -95 0
-470 -98 0
-470 -99 0
-470 -100 -85 -90 0
-470 -100 -85 -91 0
-470 -100 -85 -92 0
-470 -101 -85 -91 0
-470 -101 -85 -92 0
-470 -102 -85 -92 0
-470 -100 -86 -90 0
-470 -100 -86 -91 0
-470 -100 -86 -92 0
-470 -101 -86 -91 0
-470 -101 -86 -92 0
-470 -102 -86 -92 0
-470 -100 -115 -120 0
-470 -100 -115 -121 0
-470 -100 -115 -122 0
-470 -101 -115 -121 0
-470 -101 -115 -122 0
-470 -102 -115 -122 0
-470 -100 -116 -120 0
-470 -100 -116 -121 0
-470 -100 -116 -122 0
-470 -101 -116 -121 0
-470 -101 -116 -122 0
-470 -102 -116 -122 0
-470 -100 -117 -120 0
-470 -100 -117 -121 0
-470 -100 -117 -122 0
-470 -101 -117 -121 0
-470 -101 -117 -122 0
-470 -102 -117 -122 0
-470 -100 -118 -120 0
-470 -100 -118 -121 0
-470 -100 -118 -122 0
-470 -101 -118 -121 0
-470 -101 -118 -122 0
-470 -102 -118 -122 0
-470 148 0
-470 -100 152 0
-470 -101 153 0
-470 -102 154 0
-470 -145 0
-471 114 0
-471 -103 0
-471 -108 -100 -111 0
-471 -108 -101 -112 0
-471 -108 -102 -113 0
-471 -94 0
-471 -95 0
-471 -96 0
-471 -99 0
-471 -100 -86 -90 0
-471 -100 -86 -91 0
-471 -100 -86 -92 0
-471 -101 -86 -91 0
-471 -101 -86 -92 0
-471 -102 -86 -92 0
-471 -100 -87 -90 0
-471 -100 -87 -91 0
-471 -100 -87 -92 0
-471 -101 -87 -91 0
-471 -101 -87 -92 0
-471 -102 -87 -92 0
-471 -100 -116 -120 0
-471 -100 -116 -121 0
-471 -100 -116 -122 0
-471 -101 -116 -121 0
-471 -101 -116 -122 0
-471 -102 -116 -122 0
-471 -100 -117 -120 0
-471 -100 -117 -121 0
-471 -100 -117 -122 0
-471 -101 -117 -121 0
-471 -101 -117 -122 0
-471 -102 -117 -122 0
-471 -100 -118 -120 0
-471 -100 -118 -121 0
-471 -100 -118 -122 0
-471 -101 -118 -121 0
-471 -101 -118 -122 0
-471 -102 -118 -122 0
-471 149 0
-471 -100 152 0
-471 -101 153 0
-471 -102 154 0
-471 -145 0
-472 114 0
-472 -103 0
-472 -109 -100 -111 0
-472 -109 -101 -112 0
-472 -109 -102 -113 0
-472 -94 0
-472 -95 0
-472 -96 0
-472 -97 0
-472 -100 -87 -90 0
-472 -100 -87 -91 0
-472 -100 -87 -92 0
-472 -101 -87 -91 0
-472 -101 -87 -92 0
-472 -102 -87 -92 0
-472 -100 -88 -90 0
-472 -100 -88 -91 0
-472 -100 -88 -92 0
-472 -101 -88 -91 0
-472 -101 -88 -92 0
-472 -102 -88 -92 0
-472 -100 -117 -120 0
-472 -100 -117 -121 0
-472 -100 -117 -122 0
-472 -101 -117 -121 0
-472 -101 -117 -122 0
-472 -102 -117 -122 0
-472 -100 -118 -120 0
-472 -100 -118 -121 0
-472 -100 -118 -122 0
-472 -101 -118 -121 0
-472 -101 -118 -122 0
-472 -102 -118 -122 0
-472 150 0
-472 -100 152 0
-472 -101 153 0
-472 -102 154 0
-472 -145 0
-473 114 0
-473 -122 0
-473 -105 -119 -111 0
-473 -105 -120 -112 0
-473 -105 -121 -113 0
-473 -117 0
-473 -118 0
-473 -119 -83 -90 0
-473 -119 -83 -91 0
-473 -119 -83 -92 0
-473 -120 -83 -91 0
-473 -120 -83 -92 0
-473 -121 -83 -92 0
-473 -119 -84 -90 0
-473 -119 -84 -91 0
-473 -119 -84 -92 0
-473 -120 -84 -91 0
-473 -120 -84 -92 0
-473 -121 -84 -92 0
-473 -119 -94 -101 0
-473 -119 -94 -102 0
-473 -119 -94 -103 0
-473 -120 -94 -102 0
-473 -120 -94 -103 0
-473 -121 -94 -103 0
-473 -119 -95 -101 0
-473 -119 -95 -102 0
-473 -119 -95 -103 0
-473 -120 -95 -102 0
-473 -120 -95 -103 0
-473 -121 -95 -103 0
-473 146 0
-473 -119 152 0
-473 -120 153 0
-473 -121 154 0
-473 -164 0
-474 114 0
-474 -122 0
-474 -106 -119 -111 0
-474 -106 -120 -112 0
-474 -106 -121 -113 0
-474 -118 0
-474 -119 -84 -90 0
-474 -119 -84 -91 0
-474 -119 -84 -92 0
-474 -120 -84 -91 0
-474 -120 -84 -92 0
-474 -121 -84 -92 0
-474 -119 -85 -90 0
-474 -119 -85 -91 0
-474 -119 -85 -92 0
-474 -120 -85 -91 0
-474 -120 -85 -92 0
-474 -121 -85 -92 0
-474 -119 -95 -101 0
-474 -119 -95 -102 0
-474 -119 -95 -103 0
-474 -120 -95 -102 0
-474 -120 -95 -103 0
-474 -121 -95 -103 0
-474 -119 -96 -101 0
-474 -119 -96 -102 0
-474 -119 -96 -103 0
-474 -120 -96 -102 0
-474 -120 -96 -103 0
-474 -121 -96 -103 0
-474 147 0
-474 -119 152 0
-474 -120 153 0
-474 -121 154 0
-474 -164 0
-475 114 0
-475 -122 0
-475 -107 -119 -111 0
-475 -107 -120 -112 0
-475 -107 -121 -113 0
-475 -119 -85 -90 0
-475 -119 -85 -91 0
-475 -119 -85 -92 0
-475 -120 -85 -91 0
-475 -120 -85 -92 0
-475 -121 -85 -92 0
-475 -119 -86 -90 0
-475 -119 -86 -91 0
-475 -119 -86 -92 0
-475 -120 -86 -91 0
-475 -120 -86 -92 0
-475 -121 -86 -92 0
-475 -119 -96 -101 0
-475 -119 -96 -102 0
-475 -119 -96 -103 0
-475 -120 -96 -102 0
-475 -120 -96 -103 0
-475 -121 -96 -103 0
-475 -119 -97 -101 0
-475 -119 -97 -102 0
-475 -119 -97 -103 0
-475 -120 -97 -102 0
-475 -120 -97 -103 0
-475 -121 -97 -103 0
-475 148 0
-475 -119 152 0
-475 -120 153 0
-475 -121 154 0
-475 -164 0
-476 114 0
-476 -122 0
-476 -108 -119 -111 0
-476 -108 -120 -112 0
-476 -108 -121 -113 0
-476 -115 0
-476 -119 -86 -90 0
-476 -119 -86 -91 0
-476 -119 -86 -92 0
-476 -120 -86 -91 0
-476 -120 -86 -92 0
-476 -121 -86 -92 0
-476 -119 -87 -90 0
-476 -119 -87 -91 0
-476 -119 -87 -92 0
-476 -120 -87 -91 0
-476 -120 -87 -92 0
-476 -121 -87 -92 0
-476 -119 -97 -101 0
-476 -119 -97 -102 0
-476 -119 -97 -103 0
-476 -120 -97 -102 0
-476 -120 -97 -103 0
-476 -121 -97 -103 0
-476 -119 -98 -101 0
-476 -119 -98 -102 0
-476 -119 -98 -103 0
-476 -120 -98 -102 0
-476 -120 -98 -103 0
-476 -121 -98 -103 0
-476 149 0
-476 -119 152 0
-476 -120 153 0
-476 -121 154 0
-476 -164 0
-477 114 0
-477 -122 0
-477 -109 -119 -111 0
-477 -109 -120 -112 0
-477 -109 -121 -113 0
-477 -115 0
-477 -116 0
-477 -119 -87 -90 0
-477 -119 -87 -91 0
-477 -119 -87 -92 0
-477 -120 -87 -91 0
-477 -120 -87 -92 0
-477 -121 -87 -92 0
-477 -119 -88 -90 0
-477 -119 -88 -91 0
-477 -119 -88 -92 0
-477 -120 -88 -91 0
-477 -120 -88 -92 0
-477 -121 -88 -92 0
-477 -119 -98 -101 0
-477 -119 -98 -102 0
-477 -119 -98 -103 0
-477 -120 -98 -102 0
-477 -120 -98 -103 0
-477 -121 -98 -103 0
-477 -119 -99 -101 0
-477 -119 -99 -102 0
-477 -119 -99 -103 0
-477 -120 -99 -102 0
-477 -120 -99 -103 0
-477 -121 -99 -103 0
-477 150 0
-477 -119 152 0
-477 -120 153 0
-477 -121 154 0
-477 -164 0
-478 114 0
-478 -105 -110 0
-478 -83 -89 0
-478 -83 -90 0
-478 -83 -91 0
-478 -83 -92 0
-478 -84 -89 0
-478 -84 -90 0
-478 -84 -91 0
-478 -84 -92 0
-478 -94 -100 0
-478 -94 -101 0
-478 -94 -102 0
-478 -94 -103 0
-478 -95 -100 0
-478 -95 -101 0
-478 -95 -102 0
-478 -95 -103 0
-478 -115 -119 0
-478 -115 -120 0
-478 -115 -121 0
-478 -115 -122 0
-478 -116 -119 0
-478 -116 -120 0
-478 -116 -121 0
-478 -116 -122 0
-478 146 0
-478 151 0
-479 114 0
-479 -106 -110 0
-479 -84 -89 0
-479 -84 -90 0
-479 -84 -91 0
-479 -84 -92 0
-479 -85 -89 0
-479 -85 -90 0
-479 -85 -91 0
-479 -85 -92 0
-479 -95 -100 0
-479 -95 -101 0
-479 -95 -102 0
-479 -95 -103 0
-479 -96 -100 0
-479 -96 -101 0
-479 -96 -102 0
-479 -96 -103 0
-479 -115 -119 0
-479 -115 -120 0
-479 -115 -121 0
-479 -115 -122 0
-479 -116 -119 0
-479 -116 -120 0
-479 -116 -121 0
-479 -116 -122 0
-479 -117 -119 0
-479 -117 -120 0
-479 -117 -121 0
-479 -117 -122 0
-479 147 0
-479 151 0
-480 114 0
-480 -107 -110 0
-480 -85 -89 0
-480 -85 -90 0
-480 -85 -91 0
-480 -85 -92 0
-480 -86 -89 0
-480 -86 -90 0
-480 -86 -91 0
-480 -86 -92 0
-480 -96 -100 0
-480 -96 -101 0
-480 -96 -102 0
-480 -96 -103 0
-480 -97 -100 0
-480 -97 -101 0
-480 -97 -102 0
-480 -97 -103 0
-480 -115 -119 0
-480 -115 -120 0
-480 -115 -121 0
-480 -115 -122 0
-480 -116 -119 0
-480 -116 -120 0
-480 -116 -121 0
-480 -116 -122 0
-480 -117 -119 0
-480 -117 -120 0
-480 -117 -121 0
-480 -117 -122 0
-480 -118 -119 0
-480 -118 -120 0
-480 -118 -121 0
-480 -118 -122 0
-480 148 0
-480 151 0
-481 114 0
-481 -108 -110 0
-481 -86 -89 0
-481 -86 -90 0
-481 -86 -91 0
-481 -86 -92 0
-481 -87 -89 0
-481 -87 -90 0
-481 -87 -91 0
-481 -87 -92 0
-481 -97 -100 0
-481 -97 -101 0
-481 -97 -102 0
-481 -97 -103 0
-481 -98 -100 0
-481 -98 -101 0
-481 -98 -102 0
-481 -98 -103 0
-481 -116 -119 0
-481 -116 -120 0
-481 -116 -121 0
-481 -116 -122 0
-481 -117 -119 0
-481 -117 -120 0
-481 -117 -121 0
-481 -117 -122 0
-481 -118 -119 0
-481 -118 -120 0
-481 -118 -121 0
-481 -118 -122 0
-481 149 0
-481 151 0
-482 114 0
-482 -109 -110 0
-482 -87 -89 0
-482 -87 -90 0
-482 -87 -91 0
-482 -87 -92 0
-482 -88 -89 0
-482 -88 -90 0
-482 -88 -91 0
-482 -88 -92 0
-482 -98 -100 0
-482 -98 -101 0
-482 -98 -102 0
-482 -98 -103 0
-482 -99 -100 0
-482 -99 -101 0
-482 -99 -102 0
-482 -99 -103 0
-482 -117 -119 0
-482 -117 -120 0
-482 -117 -121 0
-482 -117 -122 0
-482 -118 -119 0
-482 -118 -120 0
-482 -118 -121 0
-482 -118 -122 0
-482 150 0
-482 151 0
-483 123 0
-483 -92 0
-483 -115 -89 -120 0
-483 -115 -90 -121 0
-483 -115 -91 -122 0
-483 -86 0
-483 -87 0
-483 -88 0
-483 -89 -94 -101 0
-483 -89 -94 -102 0
-483 -89 -94 -103 0
-483 -90 -94 -102 0
-483 -90 -94 -103 0
-483 -91 -94 -103 0
-483 -89 -95 -101 0
-483 -89 -95 -102 0
-483 -89 -95 -103 0
-483 -90 -95 -102 0
-483 -90 -95 -103 0
-483 -91 -95 -103 0
-483 -89 -96 -101 0
-483 -89 -96 -102 0
-483 -89 -96 -103 0
-483 -90 -96 -102 0
-483 -90 -96 -103 0
-483 -91 -96 -103 0
-483 -89 -105 -111 0
-483 -89 -105 -112 0
-483 -89 -105 -113 0
-483 -90 -105 -112 0
-483 -90 -105 -113 0
-483 -91 -105 -113 0
-483 -89 -106 -111 0
-483 -89 -106 -112 0
-483 -89 -106 -113 0
-483 -90 -106 -112 0
-483 -90 -106 -113 0
-483 -91 -106 -113 0
-483 -89 -107 -111 0
-483 -89 -107 -112 0
-483 -89 -107 -113 0
-483 -90 -107 -112 0
-483 -90 -107 -113 0
-483 -91 -107 -113 0
-483 156 0
-483 -89 161 0
-483 -90 162 0
-483 -91 163 0
-483 -134 0
-484 123 0
-484 -92 0
-484 -116 -89 -120 0
-484 -116 -90 -121 0
-484 -116 -91 -122 0
-484 -83 0
-484 -87 0
-484 -88 0
-484 -89 -95 -101 0
-484 -89 -95 -102 0
-484 -89 -95 -103 0
-484 -90 -95 -102 0
-484 -90 -95 -103 0
-484 -91 -95 -103 0
-484 -89 -96 -101 0
-484 -89 -96 -102 0
-484 -89 -96 -103 0
-484 -90 -96 -102 0
-484 -90 -96 -103 0
-484 -91 -96 -103 0
-484 -89 -97 -101 0
-484 -89 -97 -102 0
-484 -89 -97 -103 0
-484 -90 -97 -102 0
-484 -90 -97 -103 0
-484 -91 -97 -103 0
-484 -89 -105 -111 0
-484 -89 -105 -112 0
-484 -89 -105 -113 0
-484 -90 -105 -112 0
-484 -90 -105 -113 0
-484 -91 -105 -113 0
-484 -89 -106 -111 0
-484 -89 -106 -112 0
-484 -89 -106 -113 0
-484 -90 -106 -112 0
-484 -90 -106 -113 0
-484 -91 -106 -113 0
-484 -89 -107 -111 0
-484 -89 -107 -112 0
-484 -89 -107 -113 0
-484 -90 -107 -112 0
-484 -90 -107 -113 0
-484 -91 -107 -113 0
-484 -89 -108 -111 0
-484 -89 -108 -112 0
-484 -89 -108 -113 0
-484 -90 -108 -112 0
-484 -90 -108 -113 0
-484 -91 -108 -113 0
-484 157 0
-484 -89 161 0
-484 -90 162 0
-484 -91 163 0
-484 -134 0
-485 123 0
-485 -92 0
-485 -117 -89 -120 0
-485 -117 -90 -121 0
-485 -117 -91 -122 0
-485 -83 0
-485 -84 0
-485 -88 0
-485 -89 -96 -101 0
-485 -89 -96 -102 0
-485 -89 -96 -103 0
-485 -90 -96 -102 0
-485 -90 -96 -103 0
-485 -91 -96 -103 0
-485 -89 -97 -101 0
-485 -89 -97 -102 0
-485 -89 -97 -103 0
-485 -90 -97 -102 0
-485 -90 -97 -103 0
-485 -91 -97 -103 0
-485 -89 -98 -101 0
-485 -89 -98 -102 0
-485 -89 -98 -103 0
-485 -90 -98 -102 0
-485 -90 -98 -103 0
-485 -91 -98 -103 0
-485 -89 -106 -111 0
-485 -89 -106 -112 0
-485 -89 -106 -113 0
-485 -90 -106 -112 0
-485 -90 -106 -113 0
-485 -91 -106 -113 0
-485 -89 -107 -111 0
-485 -89 -107 -112 0
-485 -89 -107 -113 0
-485 -90 -107 -112 0
-485 -90 -107 -113 0
-485 -91 -107 -113 0
-485 -89 -108 -111 0
-485 -89 -108 -112 0
-485 -89 -108 -113 0
-485 -90 -108 -112 0
-485 -90 -108 -113 0
-485 -91 -108 -113 0
-485 -89 -109 -111 0
-485 -89 -109 -112 0
-485 -89 -109 -113 0
-485 -90 -109 -112 0
-485 -90 -109 -113 0
-485 -91 -109 -113 0
-485 158 0
-485 -89 161 0
-485 -90 162 0
-485 -91 163 0
-485 -134 0
-486 123 0
-486 -92 0
-486 -118 -89 -120 0
-486 -118 -90 -121 0
-486 -118 -91 -122 0
-486 -83 0
-486 -84 0
-486 -85 0
-486 -89 -97 -101 0
-486 -89 -97 -102 0
-486 -89 -97 -103 0
-486 -90 -97 -102 0
-486 -90 -97 -103 0
-486 -91 -97 -103 0
-486 -89 -98 -101 0
-486 -89 -98 -102 0
-486 -89 -98 -103 0
-486 -90 -98 -102 0
-486 -90 -98 -103 0
-486 -91 -98 -103 0
-486 -89 -99 -101 0
-486 -89 -99 -102 0
-486 -89 -99 -103 0
-486 -90 -99 -102 0
-486 -90 -99 -103 0
-486 -91 -99 -103 0
-486 -89 -107 -111 0
-486 -89 -107 -112 0
-486 -89 -107 -113 0
-486 -90 -107 -112 0
-486 -90 -107 -113 0
-486 -91 -107 -113 0
-486 -89 -108 -111 0
-486 -89 -108 -112 0
-486 -89 -108 -113 0
-486 -90 -108 -112 0
-486 -90 -108 -113 0
-486 -91 -108 -113 0
-486 -89 -109 -111 0
-486 -89 -109 -112 0
-486 -89 -109 -113 0
-486 -90 -109 -112 0
-486 -90 -109 -113 0
-486 -91 -109 -113 0
-486 159 0
-486 -89 161 0
-486 -90 162 0
-486 -91 163 0
-486 -134 0
-487 123 0
-487 -103 0
-487 -115 -100 -120 0
-487 -115 -101 -121 0
-487 -115 -102 -122 0
-487 -97 0
-487 -98 0
-487 -99 0
-487 -100 -83 -90 0
-487 -100 -83 -91 0
-487 -100 -83 -92 0
-487 -101 -83 -91 0
-487 -101 -83 -92 0
-487 -102 -83 -92 0
-487 -100 -84 -90 0
-487 -100 -84 -91 0
-487 -100 -84 -92 0
-487 -101 -84 -91 0
-487 -101 -84 -92 0
-487 -102 -84 -92 0
-487 -100 -85 -90 0
-487 -100 -85 -91 0
-487 -100 -85 -92 0
-487 -101 -85 -91 0
-487 -101 -85 -92 0
-487 -102 -85 -92 0
-487 -100 -105 -111 0
-487 -100 -105 -112 0
-487 -100 -105 -113 0
-487 -101 -105 -112 0
-487 -101 -105 -113 0
-487 -102 -105 -113 0
-487 -100 -106 -111 0
-487 -100 -106 -112 0
-487 -100 -106 -113 0
-487 -101 -106 -112 0
-487 -101 -106 -113 0
-487 -102 -106 -113 0
-487 -100 -107 -111 0
-487 -100 -107 -112 0
-487 -100 -107 -113 0
-487 -101 -107 -112 0
-487 -101 -107 -113 0
-487 -102 -107 -113 0
-487 156 0
-487 -100 161 0
-487 -101 162 0
-487 -102 163 0
-487 -145 0
-488 123 0
-488 -103 0
-488 -116 -100 -120 0
-488 -116 -101 -121 0
-488 -116 -102 -122 0
-488 -94 0
-488 -98 0
-488 -99 0
-488 -100 -84 -90 0
-488 -100 -84 -91 0
-488 -100 -84 -92 0
-488 -101 -84 -91 0
-488 -101 -84 -92 0
-488 -102 -84 -92 0
-488 -100 -85 -90 0
-488 -100 -85 -91 0
-488 -100 -85 -92 0
-488 -101 -85 -91 0
-488 -101 -85 -92 0
-488 -102 -85 -92 0
-488 -100 -86 -90 0
-488 -100 -86 -91 0
-488 -100 -86 -92 0
-488 -101 -86 -91 0
-488 -101 -86 -92 0
-488 -102 -86 -92 0
-488 -100 -105 -111 0
-488 -100 -105 -112 0
-488 -100 -105 -113 0
-488 -101 -105 -112 0
-488 -101 -105 -113 0
-488 -102 -105 -113 0
-488 -100 -106 -111 0
-488 -100 -106 -112 0
-488 -100 -106 -113 0
-488 -101 -106 -112 0
-488 -101 -106 -113 0
-488 -102 -106 -113 0
-488 -100 -107 -111 0
-488 -100 -107 -112 0
-488 -100 -107 -113 0
-488 -101 -107 -112 0
-488 -101 -107 -113 0
-488 -102 -107 -113 0
-488 -100 -108 -111 0
-488 -100 -108 -112 0
-488 -100 -108 -113 0
-488 -101 -108 -112 0
-488 -101 -108 -113 0
-488 -102 -108 -113 0
-488 157 0
-488 -100 161 0
-488 -101 162 0
-488 -102 163 0
-488 -145 0
-489 123 0
-489 -103 0
-489 -117 -100 -120 0
-489 -117 -101 -121 0
-489 -117 -102 -122 0
-489 -94 0
-489 -95 0
-489 -99 0
-489 -100 -85 -90 0
-489 -100 -85 -91 0
-489 -100 -85 -92 0
-489 -101 -85 -91 0
-489 -101 -85 -92 0
-489 -102 -85 -92 0
-489 -100 -86 -90 0
-489 -100 -86 -91 0
-489 -100 -86 -92 0
-489 -101 -86 -91 0
-489 -101 -86 -92 0
-489 -102 -86 -92 0
-489 -100 -87 -90 0
-489 -100 -87 -91 0
-489 -100 -87 -92 0
-489 -101 -87 -91 0
-489 -101 -87 -92 0
-489 -102 -87 -92 0
-489 -100 -106 -111 0
-489 -100 -106 -112 0
-489 -100 -106 -113 0
-489 -101 -106 -112 0
-489 -101 -106 -113 0
-489 -102 -106 -113 0
-489 -100 -107 -111 0
-489 -100 -107 -112 0
-489 -100 -107 -113 0
-489 -101 -107 -112 0
-489 -101 -107 -113 0
-489 -102 -107 -113 0
-489 -100 -108 -111 0
-489 -100 -108 -112 0
-489 -100 -108 -113 0
-489 -101 -108 -112 0
-489 -101 -108 -113 0
-489 -102 -108 -113 0
-489 -100 -109 -111 0
-489 -100 -109 -112 0
-489 -100 -109 -113 0
-489 -101 -109 -112 0
-489 -101 -109 -113 0
-489 -102 -109 -113 0
-489 158 0
-489 -100 161 0
-489 -101 162 0
-489 -102 163 0
-489 -145 0
-490 123 0
-490 -103 0
-490 -118 -100 -120 0
-490 -118 -101 -121 0
-490 -118 -102 -122 0
-490 -94 0
-490 -95 0
-490 -96 0
-490 -100 -86 -90 0
-490 -100 -86 -91 0
-490 -100 -86 -92 0
-490 -101 -86 -91 0
-490 -101 -86 -92 0
-490 -102 -86 -92 0
-490 -100 -87 -90 0
-490 -100 -87 -91 0
-490 -100 -87 -92 0
-490 -101 -87 -91 0
-490 -101 -87 -92 0
-490 -102 -87 -92 0
-490 -100 -88 -90 0
-490 -100 -88 -91 0
-490 -100 -88 -92 0
-490 -101 -88 -91 0
-490 -101 -88 -92 0
-490 -102 -88 -92 0
-490 -100 -107 -111 0
-490 -100 -107 -112 0
-490 -100 -107 -113 0
-490 -101 -107 -112 0
-490 -101 -107 -113 0
-490 -102 -107 -113 0
-490 -100 -108 -111 0
-490 -100 -108 -112 0
-490 -100 -108 -113 0
-490 -101 -108 -112 0
-490 -101 -108 -113 0
-490 -102 -108 -113 0
-490 -100 -109 -111 0
-490 -100 -109 -112 0
-490 -100 -109 -113 0
-490 -101 -109 -112 0
-490 -101 -109 -113 0
-490 -102 -109 -113 0
-490 159 0
-490 -100 161 0
-490 -101 162 0
-490 -102 163 0
-490 -145 0
-491 123 0
-491 -113 0
-491 -115 -110 -120 0
-491 -115 -111 -121 0
-491 -115 -112 -122 0
-491 -108 0
-491 -109 0
-491 -110 -83 -90 0
-491 -110 -83 -91 0
-491 -110 -83 -92 0
-491 -111 -83 -91 0
-491 -111 -83 -92 0
-491 -112 -83 -92 0
-491 -110 -84 -90 0
-491 -110 -84 -91 0
-491 -110 -84 -92 0
-491 -111 -84 -91 0
-491 -111 -84 -92 0
-491 -112 -84 -92 0
-491 -110 -85 -90 0
-491 -110 -85 -91 0
-491 -110 -85 -92 0
-491 -111 -85 -91 0
-491 -111 -85 -92 0
-491 -112 -85 -92 0
-491 -110 -94 -101 0
-491 -110 -94 -102 0
-491 -110 -94 -103 0
-491 -111 -94 -102 0
-491 -111 -94 -103 0
-491 -112 -94 -103 0
-491 -110 -95 -101 0
-491 -110 -95 -102 0
-491 -110 -95 -103 0
-491 -111 -95 -102 0
-491 -111 -95 -103 0
-491 -112 -95 -103 0
-491 -110 -96 -101 0
-491 -110 -96 -102 0
-491 -110 -96 -103 0
-491 -111 -96 -102 0
-491 -111 -96 -103 0
-491 -112 -96 -103 0
-491 156 0
-491 -110 161 0
-491 -111 162 0
-491 -112 163 0
-491 -155 0
-492 123 0
-492 -113 0
-492 -116 -110 -120 0
-492 -116 -111 -121 0
-492 -116 -112 -122 0
-492 -109 0
-492 -110 -84 -90 0
-492 -110 -84 -91 0
-492 -110 -84 -92 0
-492 -111 -84 -91 0
-492 -111 -84 -92 0
-492 -112 -84 -92 0
-492 -110 -85 -90 0
-492 -110 -85 -91 0
-492 -110 -85 -92 0
-492 -111 -85 -91 0
-492 -111 -85 -92 0
-492 -112 -85 -92 0
-492 -110 -86 -90 0
-492 -110 -86 -91 0
-492 -110 -86 -92 0
-492 -111 -86 -91 0
-492 -111 -86 -92 0
-492 -112 -86 -92 0
-492 -110 -95 -101 0
-492 -110 -95 -102 0
-492 -110 -95 -103 0
-492 -111 -95 -102 0
-492 -111 -95 -103 0
-492 -112 -95 -103 0
-492 -110 -96 -101 0
-492 -110 -96 -102 0
-492 -110 -96 -103 0
-492 -111 -96 -102 0
-492 -111 -96 -103 0
-492 -112 -96 -103 0
-492 -110 -97 -101 0
-492 -110 -97 -102 0
-492 -110 -97 -103 0
-492 -111 -97 -102 0
-492 -111 -97 -103 0
-492 -112 -97 -103 0
-492 157 0
-492 -110 161 0
-492 -111 162 0
-492 -112 163 0
-492 -155 0
-493 123 0
-493 -113 0
-493 -117 -110 -120 0
-493 -117 -111 -121 0
-493 -117 -112 -122 0
-493 -105 0
-493 -110 -85 -90 0
-493 -110 -85 -91 0
-493 -110 -85 -92 0
-493 -111 -85 -91 0
-493 -111 -85 -92 0
-493 -112 -85 -92 0
-493 -110 -86 -90 0
-493 -110 -86 -91 0
-493 -110 -86 -92 0
-493 -111 -86 -91 0
-493 -111 -86 -92 0
-493 -112 -86 -92 0
-493 -110 -87 -90 0
-493 -110 -87 -91 0
-493 -110 -87 -92 0
-493 -111 -87 -91 0
-493 -111 -87 -92 0
-493 -112 -87 -92 0
-493 -110 -96 -101 0
-493 -110 -96 -102 0
-493 -110 -96 -103 0
-493 -111 -96 -102 0
-493 -111 -96 -103 0
-493 -112 -96 -103 0
-493 -110 -97 -101 0
-493 -110 -97 -102 0
-493 -110 -97 -103 0
-493 -111 -97 -102 0
-493 -111 -97 -103 0
-493 -112 -97 -103 0
-493 -110 -98 -101 0
-493 -110 -98 -102 0
-493 -110 -98 -103 0
-493 -111 -98 -102 0
-493 -111 -98 -103 0
-493 -112 -98 -103 0
-493 158 0
-493 -110 161 0
-493 -111 162 0
-493 -112 163 0
-493 -155 0
-494 123 0
-494 -113 0
-494 -118 -110 -120 0
-494 -118 -111 -121 0
-494 -118 -112 -122 0
-494 -105 0
-494 -106 0
-494 -110 -86 -90 0
-494 -110 -86 -91 0
-494 -110 -86 -92 0
-494 -111 -86 -91 0
-494 -111 -86 -92 0
-494 -112 -86 -92 0
-494 -110 -87 -90 0
-494 -110 -87 -91 0
-494 -110 -87 -92 0
-494 -111 -87 -91 0
-494 -111 -87 -92 0
-494 -112 -87 -92 0
-494 -110 -88 -90 0
-494 -110 -88 -91 0
-494 -110 -88 -92 0
-494 -111 -88 -91 0
-494 -111 -88 -92 0
-494 -112 -88 -92 0
-494 -110 -97 -101 0
-494 -110 -97 -102 0
-494 -110 -97 -103 0
-494 -111 -97 -102 0
-494 -111 -97 -103 0
-494 -112 -97 -103 0
-494 -110 -98 -101 0
-494 -110 -98 -102 0
-494 -110 -98 -103 0
-494 -111 -98 -102 0
-494 -111 -98 -103 0
-494 -112 -98 -103 0
-494 -110 -99 -101 0
-494 -110 -99 -102 0
-494 -110 -99 -103 0
-494 -111 -99 -102 0
-494 -111 -99 -103 0
-494 -112 -99 -103 0
-494 159 0
-494 -110 161 0
-494 -111 162 0
-494 -112 163 0
-494 -155 0
-495 123 0
-495 -115 -119 0
-495 -83 -89 0
-495 -83 -90 0
-495 -83 -91 0
-495 -83 -92 0
-495 -84 -89 0
-495 -84 -90 0
-495 -84 -91 0
-495 -84 -92 0
-495 -85 -89 0
-495 -85 -90 0
-495 -85 -91 0
-495 -85 -92 0
-495 -94 -100 0
-495 -94 -101 0
-495 -94 -102 0
-495 -94 -103 0
-495 -95 -100 0
-495 -95 -101 0
-495 -95 -102 0
-495 -95 -103 0
-495 -96 -100 0
-495 -96 -101 0
-495 -96 -102 0
-495 -96 -103 0
-495 -105 -110 0
-495 -105 -111 0
-495 -105 -112 0
-495 -105 -113 0
-495 -106 -110 0
-495 -106 -111 0
-495 -106 -112 0
-495 -106 -113 0
-495 -107 -110 0
-495 -107 -111 0
-495 -107 -112 0
-495 -107 -113 0
-495 156 0
-495 160 0
-496 123 0
-496 -116 -119 0
-496 -84 -89 0
-496 -84 -90 0
-496 -84 -91 0
-496 -84 -92 0
-496 -85 -89 0
-496 -85 -90 0
-496 -85 -91 0
-496 -85 -92 0
-496 -86 -89 0
-496 -86 -90 0
-496 -86 -91 0
-496 -86 -92 0
-496 -95 -100 0
-496 -95 -101 0
-496 -95 -102 0
-496 -95 -103 0
-496 -96 -100 0
-496 -96 -101 0
-496 -96 -102 0
-496 -96 -103 0
-496 -97 -100 0
-496 -97 -101 0
-496 -97 -102 0
-496 -97 -103 0
-496 -105 -110 0
-496 -105 -111 0
-496 -105 -112 0
-496 -105 -113 0
-496 -106 -110 0
-496 -106 -111 0
-496 -106 -112 0
-496 -106 -113 0
-496 -107 -110 0
-496 -107 -111 0
-496 -107 -112 0
-496 -107 -113 0
-496 -108 -110 0
-496 -108 -111 0
-496 -108 -112 0
-496 -108 -113 0
-496 157 0
-496 160 0
-497 123 0
-497 -117 -119 0
-497 -85 -89 0
-497 -85 -90 0
-497 -85 -91 0
-497 -85 -92 0
-497 -86 -89 0
-497 -86 -90 0
-497 -86 -91 0
-497 -86 -92 0
-497 -87 -89 0
-497 -87 -90 0
-497 -87 -91 0
-497 -87 -92 0
-497 -96 -100 0
-497 -96 -101 0
-497 -96 -102 0
-497 -96 -103 0
-497 -97 -100 0
-497 -97 -101 0
-497 -97 -102 0
-497 -97 -103 0
-497 -98 -100 0
-497 -98 -101 0
-497 -98 -102 0
-497 -98 -103 0
-497 -106 -110 0
-497 -106 -111 0
-497 -106 -112 0
-497 -106 -113 0
-497 -107 -110 0
-497 -107 -111 0
-497 -107 -112 0
-497 -107 -113 0
-497 -108 -110 0
-497 -108 -111 0
-497 -108 -112 0
-497 -108 -113 0
-497 -109 -110 0
-497 -109 -111 0
-497 -109 -112 0
-497 -109 -113 0
-497 158 0
-497 160 0
-498 123 0
-498 -118 -119 0
-498 -86 -89 0
-498 -86 -90 0
-498 -86 -91 0
-498 -86 -92 0
-498 -87 -89 0
-498 -87 -90 0
-498 -87 -91 0
-498 -87 -92 0
-498 -88 -89 0
-498 -88 -90 0
-498 -88 -91 0
-498 -88 -92 0
-498 -97 -100 0
-498 -97 -101 0
-498 -97 -102 0
-498 -97 -103 0
-498 -98 -100 0
-498 -98 -101 0
-498 -98 -102 0
-498 -98 -103 0
-498 -99 -100 0
-498 -99 -101 0
-498 -99 -102 0
-498 -99 -103 0
-498 -107 -110 0
-498 -107 -111 0
-498 -107 -112 0
-498 -107 -113 0
-498 -108 -110 0
-498 -108 -111 0
-498 -108 -112 0
-498 -108 -113 0
-498 -109 -110 0
-498 -109 -111 0
-498 -109 -112 0
-498 -109 -113 0
-498 159 0
-498 160 0
-499 134 0
-499 -144 0
-499 -124 -141 -131 0
-499 -124 -142 -132 0
-499 -124 -143 -133 0
-499 -136 0
-499 -137 0
-499 -138 0
-499 -139 0
-499 -140 0
-499 -141 -146 -152 0
-499 -141 -146 -153 0
-499 -141 -146 -154 0
-499 -142 -146 -153 0
-499 -142 -146 -154 0
-499 -143 -146 -154 0
-499 -141 -156 -161 0
-499 -141 -156 -162 0
-499 -141 -156 -163 0
-499 -142 -156 -162 0
-499 -142 -156 -163 0
-499 -143 -156 -163 0
-499 165 0
-499 -141 172 0
-499 -142 173 0
-499 -143 174 0
-499 -186 0
-500 134 0
-500 -144 0
-500 -125 -141 -131 0
-500 -125 -142 -132 0
-500 -125 -143 -133 0
-500 -135 0
-500 -137 0
-500 -138 0
-500 -139 0
-500 -140 0
-500 -141 -146 -152 0
-500 -141 -146 -153 0
-500 -141 -146 -154 0
-500 -142 -146 -153 0
-500 -142 -146 -154 0
-500 -143 -146 -154 0
-500 -141 -147 -152 0
-500 -141 -147 -153 0
-500 -141 -147 -154 0
-500 -142 -147 -153 0
-500 -142 -147 -154 0
-500 -143 -147 -154 0
-500 -141 -156 -161 0
-500 -141 -156 -162 0
-500 -141 -156 -163 0
-500 -142 -156 -162 0
-500 -142 -156 -163 0
-500 -143 -156 -163 0
-500 -141 -157 -161 0
-500 -141 -157 -162 0
-500 -141 -157 -163 0
-500 -142 -157 -162 0
-500 -142 -157 -163 0
-500 -143 -157 -163 0
-500 166 0
-500 -141 172 0
-500 -142 173 0
-500 -143 174 0
-500 -186 0
-501 134 0
-501 -144 0
-501 -126 -141 -131 0
-501 -126 -142 -132 0
-501 -126 -143 -133 0
-501 -135 0
-501 -136 0
-501 -138 0
-501 -139 0
-501 -140 0
-501 -141 -147 -152 0
-501 -141 -147 -153 0
-501 -141 -147 -154 0
-501 -142 -147 -153 0
-501 -142 -147 -154 0
-501 -143 -147 -154 0
-501 -141 -148 -152 0
-501 -141 -148 -153 0
-501 -141 -148 -154 0
-501 -142 -148 -153 0
-501 -142 -148 -154 0
-501 -143 -148 -154 0
-501 -141 -156 -161 0
-501 -141 -156 -162 0
-501 -141 -156 -163 0
-501 -142 -156 -162 0
-501 -142 -156 -163 0
-501 -143 -156 -163 0
-501 -141 -157 -161 0
-501 -141 -157 -162 0
-501 -141 -157 -163 0
-501 -142 -157 -162 0
-501 -142 -157 -163 0
-501 -143 -157 -163 0
-501 -141 -158 -161 0
-501 -141 -158 -162 0
-501 -141 -158 -163 0
-501 -142 -158 -162 0
-501 -142 -158 -163 0
-501 -143 -158 -163 0
-501 167 0
-501 -141 172 0
-501 -142 173 0
-501 -143 174 0
-501 -186 0
-502 134 0
-502 -144 0
-502 -127 -141 -131 0
-502 -127 -142 -132 0
-502 -127 -143 -133 0
-502 -135 0
-502 -136 0
-502 -137 0
-502 -139 0
-502 -140 0
-502 -141 -148 -152 0
-502 -141 -148 -153 0
-502 -141 -148 -154 0
-502 -142 -148 -153 0
-502 -142 -148 -154 0
-502 -143 -148 -154 0
-502 -141 -149 -152 0
-502 -141 -149 -153 0
-502 -141 -149 -154 0
-502 -142 -149 -153 0
-502 -142 -149 -154 0
-502 -143 -149 -154 0
-502 -141 -157 -161 0
-502 -141 -157 -162 0
-502 -141 -157 -163 0
-502 -142 -157 -162 0
-502 -142 -157 -163 0
-502 -143 -157 -163 0
-502 -141 -158 -161 0
-502 -141 -158 -162 0
-502 -141 -158 -163 0
-502 -142 -158 -162 0
-502 -142 -158 -163 0
-502 -143 -158 -163 0
-502 -141 -159 -161 0
-502 -141 -159 -162 0
-502 -141 -159 -163 0
-502 -142 -159 -162 0
-502 -142 -159 -163 0
-502 -143 -159 -163 0
-502 168 0
-502 -141 172 0
-502 -142 173 0
-502 -143 174 0
-502 -186 0
-503 134 0
-503 -144 0
-503 -128 -141 -131 0
-503 -128 -142 -132 0
-503 -128 -143 -133 0
-503 -135 0
-503 -136 0
-503 -137 0
-503 -138 0
-503 -140 0
-503 -141 -149 -152 0
-503 -141 -149 -153 0
-503 -141 -149 -154 0
-503 -142 -149 -153 0
-503 -142 -149 -154 0
-503 -143 -149 -154 0
-503 -141 -150 -152 0
-503 -141 -150 -153 0
-503 -141 -150 -154 0
-503 -142 -150 -153 0
-503 -142 -150 -154 0
-503 -143 -150 -154 0
-503 -141 -158 -161 0
-503 -141 -158 -162 0
-503 -141 -158 -163 0
-503 -142 -158 -162 0
-503 -142 -158 -163 0
-503 -143 -158 -163 0
-503 -141 -159 -161 0
-503 -141 -159 -162 0
-503 -141 -159 -163 0
-503 -142 -159 -162 0
-503 -142 -159 -163 0
-503 -143 -159 -163 0
-503 169 0
-503 -141 172 0
-503 -142 173 0
-503 -143 174 0
-503 -186 0
-504 134 0
-504 -144 0
-504 -129 -141 -131 0
-504 -129 -142 -132 0
-504 -129 -143 -133 0
-504 -135 0
-504 -136 0
-504 -137 0
-504 -138 0
-504 -139 0
-504 -141 -150 -152 0
-504 -141 -150 -153 0
-504 -141 -150 -154 0
-504 -142 -150 -153 0
-504 -142 -150 -154 0
-504 -143 -150 -154 0
-504 -141 -159 -161 0
-504 -141 -159 -162 0
-504 -141 -159 -163 0
-504 -142 -159 -162 0
-504 -142 -159 -163 0
-504 -143 -159 -163 0
-504 170 0
-504 -141 172 0
-504 -142 173 0
-504 -143 174 0
-504 -186 0
-505 134 0
-505 -154 0
-505 -124 -151 -131 0
-505 -124 -152 -132 0
-505 -124 -153 -133 0
-505 -147 0
-505 -148 0
-505 -149 0
-505 -150 0
-505 -151 -135 -142 0
-505 -151 -135 -143 0
-505 -151 -135 -144 0
-505 -152 -135 -143 0
-505 -152 -135 -144 0
-505 -153 -135 -144 0
-505 -151 -156 -161 0
-505 -151 -156 -162 0
-505 -151 -156 -163 0
-505 -152 -156 -162 0
-505 -152 -156 -163 0
-505 -153 -156 -163 0
-505 165 0
-505 -151 172 0
-505 -152 173 0
-505 -153 174 0
-505 -196 0
-506 134 0
-506 -154 0
-506 -125 -151 -131 0
-506 -125 -152 -132 0
-506 -125 -153 -133 0
-506 -148 0
-506 -149 0
-506 -150 0
-506 -151 -136 -142 0
-506 -151 -136 -143 0
-506 -151 -136 -144 0
-506 -152 -136 -143 0
-506 -152 -136 -144 0
-506 -153 -136 -144 0
-506 -151 -156 -161 0
-506 -151 -156 -162 0
-506 -151 -156 -163 0
-506 -152 -156 -162 0
-506 -152 -156 -163 0
-506 -153 -156 -163 0
-506 -151 -157 -161 0
-506 -151 -157 -162 0
-506 -151 -157 -163 0
-506 -152 -157 -162 0
-506 -152 -157 -163 0
-506 -153 -157 -163 0
-506 166 0
-506 -151 172 0
-506 -152 173 0
-506 -153 174 0
-506 -196 0
-507 134 0
-507 -154 0
-507 -126 -151 -131 0
-507 -126 -152 -132 0
-507 -126 -153 -133 0
-507 -146 0
-507 -149 0
-507 -150 0
-507 -151 -137 -142 0
-507 -151 -137 -143 0
-507 -151 -137 -144 0
-507 -152 -137 -143 0
-507 -152 -137 -144 0
-507 -153 -137 -144 0
-507 -151 -156 -161 0
-507 -151 -156 -162 0
-507 -151 -156 -163 0
-507 -152 -156 -162 0
-507 -152 -156 -163 0
-507 -153 -156 -163 0
-507 -151 -157 -161 0
-507 -151 -157 -162 0
-507 -151 -157 -163 0
-507 -152 -157 -162 0
-507 -152 -157 -163 0
-507 -153 -157 -163 0
-507 -151 -158 -161 0
-507 -151 -158 -162 0
-507 -151 -158 -163 0
-507 -152 -158 -162 0
-507 -152 -158 -163 0
-507 -153 -158 -163 0
-507 167 0
-507 -151 172 0
-507 -152 173 0
-507 -153 174 0
-507 -196 0
-508 134 0
-508 -154 0
-508 -127 -151 -131 0
-508 -127 -152 -132 0
-508 -127 -153 -133 0
-508 -146 0
-508 -147 0
-508 -150 0
-508 -151 -138 -142 0
-508 -151 -138 -143 0
-508 -151 -138 -144 0
-508 -152 -138 -143 0
-508 -152 -138 -144 0
-508 -153 -138 -144 0
-508 -151 -157 -161 0
-508 -151 -157 -162 0
-508 -151 -157 -163 0
-508 -152 -157 -162 0
-508 -152 -157 -163 0
-508 -153 -157 -163 0
-508 -151 -158 -161 0
-508 -151 -158 -162 0
-508 -151 -158 -163 0
-508 -152 -158 -162 0
-508 -152 -158 -163 0
-508 -153 -158 -163 0
-508 -151 -159 -161 0
-508 -151 -159 -162 0
-508 -151 -159 -163 0
-508 -152 -159 -162 0
-508 -152 -159 -163 0
-508 -153 -159 -163 0
-508 168 0
-508 -151 172 0
-508 -152 173 0
-508 -153 174 0
-508 -196 0
-509 134 0
-509 -154 0
-509 -128 -151 -131 0
-509 -128 -152 -132 0
-509 -128 -153 -133 0
-509 -146 0
-509 -147 0
-509 -148 0
-509 -151 -139 -142 0
-509 -151 -139 -143 0
-509 -151 -139 -144 0
-509 -152 -139 -143 0
-509 -152 -139 -144 0
-509 -153 -139 -144 0
-509 -151 -158 -161 0
-509 -151 -158 -162 0
-509 -151 -158 -163 0
-509 -152 -158 -162 0
-509 -152 -158 -163 0
-509 -153 -158 -163 0
-509 -151 -159 -161 0
-509 -151 -159 -162 0
-509 -151 -159 -163 0
-509 -152 -159 -162 0
-509 -152 -159 -163 0
-509 -153 -159 -163 0
-509 169 0
-509 -151 172 0
-509 -152 173 0
-509 -153 174 0
-509 -196 0
-510 134 0
-510 -154 0
-510 -129 -151 -131 0
-510 -129 -152 -132 0
-510 -129 -153 -133 0
-510 -146 0
-510 -147 0
-510 -148 0
-510 -149 0
-510 -151 -140 -142 0
-510 -151 -140 -143 0
-510 -151 -140 -144 0
-510 -152 -140 -143 0
-510 -152 -140 -144 0
-510 -153 -140 -144 0
-510 -151 -159 -161 0
-510 -151 -159 -162 0
-510 -151 -159 -163 0
-510 -152 -159 -162 0
-510 -152 -159 -163 0
-510 -153 -159 -163 0
-510 170 0
-510 -151 172 0
-510 -152 173 0
-510 -153 174 0
-510 -196 0
-511 134 0
-511 -163 0
-511 -124 -160 -131 0
-511 -124 -161 -132 0
-511 -124 -162 -133 0
-511 -157 0
-511 -158 0
-511 -159 0
-511 -160 -135 -142 0
-511 -160 -135 -143 0
-511 -160 -135 -144 0
-511 -161 -135 -143 0
-511 -161 -135 -144 0
-511 -162 -135 -144 0
-511 -160 -146 -152 0
-511 -160 -146 -153 0
-511 -160 -146 -154 0
-511 -161 -146 -153 0
-511 -161 -146 -154 0
-511 -162 -146 -154 0
-511 165 0
-511 -160 172 0
-511 -161 173 0
-511 -162 174 0
-511 -205 0
-512 134 0
-512 -163 0
-512 -125 -160 -131 0
-512 -125 -161 -132 0
-512 -125 -162 -133 0
-512 -158 0
-512 -159 0
-512 -160 -136 -142 0
-512 -160 -136 -143 0
-512 -160 -136 -144 0
-512 -161 -136 -143 0
-512 -161 -136 -144 0
-512 -162 -136 -144 0
-512 -160 -146 -152 0
-512 -160 -146 -153 0
-512 -160 -146 -154 0
-512 -161 -146 -153 0
-512 -161 -146 -154 0
-512 -162 -146 -154 0
-512 -160 -147 -152 0
-512 -160 -147 -153 0
-512 -160 -147 -154 0
-512 -161 -147 -153 0
-512 -161 -147 -154 0
-512 -162 -147 -154 0
-512 166 0
-512 -160 172 0
-512 -161 173 0
-512 -162 174 0
-512 -205 0
-513 134 0
-513 -163 0
-513 -126 -160 -131 0
-513 -126 -161 -132 0
-513 -126 -162 -133 0
-513 -159 0
-513 -160 -137 -142 0
-513 -160 -137 -143 0
-513 -160 -137 -144 0
-513 -161 -137 -143 0
-513 -161 -137 -144 0
-513 -162 -137 -144 0
-513 -160 -147 -152 0
-513 -160 -147 -153 0
-513 -160 -147 -154 0
-513 -161 -147 -153 0
-513 -161 -147 -154 0
-513 -162 -147 -154 0
-513 -160 -148 -152 0
-513 -160 -148 -153 0
-513 -160 -148 -154 0
-513 -161 -148 -153 0
-513 -161 -148 -154 0
-513 -162 -148 -154 0
-513 167 0
-513 -160 172 0
-513 -161 173 0
-513 -162 174 0
-513 -205 0
-514 134 0
-514 -163 0
-514 -127 -160 -131 0
-514 -127 -161 -132 0
-514 -127 -162 -133 0
-514 -156 0
-514 -160 -138 -142 0
-514 -160 -138 -143 0
-514 -160 -138 -144 0
-514 -161 -138 -143 0
-514 -161 -138 -144 0
-514 -162 -138 -144 0
-514 -160 -148 -152 0
-514 -160 -148 -153 0
-514 -160 -148 -154 0
-514 -161 -148 -153 0
-514 -161 -148 -154 0
-514 -162 -148 -154 0
-514 -160 -149 -152 0
-514 -160 -149 -153 0
-514 -160 -149 -154 0
-514 -161 -149 -153 0
-514 -161 -149 -154 0
-514 -162 -149 -154 0
-514 168 0
-514 -160 172 0
-514 -161 173 0
-514 -162 174 0
-514 -205 0
-515 134 0
-515 -163 0
-515 -128 -160 -131 0
-515 -128 -161 -132 0
-515 -128 -162 -133 0
-515 -156 0
-515 -157 0
-515 -160 -139 -142 0
-515 -160 -139 -143 0
-515 -160 -139 -144 0
-515 -161 -139 -143 0
-515 -161 -139 -144 0
-515 -162 -139 -144 0
-515 -160 -149 -152 0
-515 -160 -149 -153 0
-515 -160 -149 -154 0
-515 -161 -149 -153 0
-515 -161 -149 -154 0
-515 -162 -149 -154 0
-515 -160 -150 -152 0
-515 -160 -150 -153 0
-515 -160 -150 -154 0
-515 -161 -150 -153 0
-515 -161 -150 -154 0
-515 -162 -150 -154 0
-515 169 0
-515 -160 172 0
-515 -161 173 0
-515 -162 174 0
-515 -205 0
-516 134 0
-516 -163 0
-516 -129 -160 -131 0
-516 -129 -161 -132 0
-516 -129 -162 -133 0
-516 -156 0
-516 -157 0
-516 -158 0
-516 -160 -140 -142 0
-516 -160 -140 -143 0
-516 -160 -140 -144 0
-516 -161 -140 -143 0
-516 -161 -140 -144 0
-516 -162 -140 -144 0
-516 -160 -150 -152 0
-516 -160 -150 -153 0
-516 -160 -150 -154 0
-516 -161 -150 -153 0
-516 -161 -150 -154 0
-516 -162 -150 -154 0
-516 170 0
-516 -160 172 0
-516 -161 173 0
-516 -162 174 0
-516 -205 0
-517 134 0
-517 -124 -130 0
-517 -135 -141 0
-517 -135 -142 0
-517 -135 -143 0
-517 -135 -144 0
-517 -146 -151 0
-517 -146 -152 0
-517 -146 -153 0
-517 -146 -154 0
-517 -156 -160 0
-517 -156 -161 0
-517 -156 -162 0
-517 -156 -163 0
-517 165 0
-517 171 0
-518 134 0
-518 -125 -130 0
-518 -136 -141 0
-518 -136 -142 0
-518 -136 -143 0
-518 -136 -144 0
-518 -146 -151 0
-518 -146 -152 0
-518 -146 -153 0
-518 -146 -154 0
-518 -147 -151 0
-518 -147 -152 0
-518 -147 -153 0
-518 -147 -154 0
-518 -156 -160 0
-518 -156 -161 0
-518 -156 -162 0
-518 -156 -163 0
-518 -157 -160 0
-518 -157 -161 0
-518 -157 -162 0
-518 -157 -163 0
-518 166 0
-518 171 0
-519 134 0
-519 -126 -130 0
-519 -137 -141 0
-519 -137 -142 0
-519 -137 -143 0
-519 -137 -144 0
-519 -147 -151 0
-519 -147 -152 0
-519 -147 -153 0
-519 -147 -154 0
-519 -148 -151 0
-519 -148 -152 0
-519 -148 -153 0
-519 -148 -154 0
-519 -156 -160 0
-519 -156 -161 0
-519 -156 -162 0
-519 -156 -163 0
-519 -157 -160 0
-519 -157 -161 0
-519 -157 -162 0
-519 -157 -163 0
-519 -158 -160 0
-519 -158 -161 0
-519 -158 -162 0
-519 -158 -163 0
-519 167 0
-519 171 0
-520 134 0
-520 -127 -130 0
-520 -138 -141 0
-520 -138 -142 0
-520 -138 -143 0
-520 -138 -144 0
-520 -148 -151 0
-520 -148 -152 0
-520 -148 -153 0
-520 -148 -154 0
-520 -149 -151 0
-520 -149 -152 0
-520 -149 -153 0
-520 -149 -154 0
-520 -157 -160 0
-520 -157 -161 0
-520 -157 -162 0
-520 -157 -163 0
-520 -158 -160 0
-520 -158 -161 0
-520 -158 -162 0
-520 -158 -163 0
-520 -159 -160 0
-520 -159 -161 0
-520 -159 -162 0
-520 -159 -163 0
-520 168 0
-520 171 0
-521 134 0
-521 -128 -130 0
-521 -139 -141 0
-521 -139 -142 0
-521 -139 -143 0
-521 -139 -144 0
-521 -149 -151 0
-521 -149 -152 0
-521 -149 -153 0
-521 -149 -154 0
-521 -150 -151 0
-521 -150 -152 0
-521 -150 -153 0
-521 -150 -154 0
-521 -158 -160 0
-521 -158 -161 0
-521 -158 -162 0
-521 -158 -163 0
-521 -159 -160 0
-521 -159 -161 0
-521 -159 -162 0
-521 -159 -163 0
-521 169 0
-521 171 0
-522 134 0
-522 -129 -130 0
-522 -140 -141 0
-522 -140 -142 0
-522 -140 -143 0
-522 -140 -144 0
-522 -150 -151 0
-522 -150 -152 0
-522 -150 -153 0
-522 -150 -154 0
-522 -159 -160 0
-522 -159 -161 0
-522 -159 -162 0
-522 -159 -163 0
-522 170 0
-522 171 0
-523 145 0
-523 -133 0
-523 -135 -130 -142 0
-523 -135 -131 -143 0
-523 -135 -132 -144 0
-523 -125 0
-523 -126 0
-523 -127 0
-523 -128 0
-523 -129 0
-523 -130 -146 -152 0
-523 -130 -146 -153 0
-523 -130 -146 -154 0
-523 -131 -146 -153 0
-523 -131 -146 -154 0
-523 -132 -146 -154 0
-523 -130 -156 -161 0
-523 -130 -156 -162 0
-523 -130 -156 -163 0
-523 -131 -156 -162 0
-523 -131 -156 -163 0
-523 -132 -156 -163 0
-523 176 0
-523 -130 183 0
-523 -131 184 0
-523 -132 185 0
-523 -175 0
-524 145 0
-524 -133 0
-524 -136 -130 -142 0
-524 -136 -131 -143 0
-524 -136 -132 -144 0
-524 -124 0
-524 -126 0
-524 -127 0
-524 -128 0
-524 -129 0
-524 -130 -146 -152 0
-524 -130 -146 -153 0
-524 -130 -146 -154 0
-524 -131 -146 -153 0
-524 -131 -146 -154 0
-524 -132 -146 -154 0
-524 -130 -147 -152 0
-524 -130 -147 -153 0
-524 -130 -147 -154 0
-524 -131 -147 -153 0
-524 -131 -147 -154 0
-524 -132 -147 -154 0
-524 -130 -156 -161 0
-524 -130 -156 -162 0
-524 -130 -156 -163 0
-524 -131 -156 -162 0
-524 -131 -156 -163 0
-524 -132 -156 -163 0
-524 -130 -157 -161 0
-524 -130 -157 -162 0
-524 -130 -157 -163 0
-524 -131 -157 -162 0
-524 -131 -157 -163 0
-524 -132 -157 -163 0
-524 177 0
-524 -130 183 0
-524 -131 184 0
-524 -132 185 0
-524 -175 0
-525 145 0
-525 -133 0
-525 -137 -130 -142 0
-525 -137 -131 -143 0
-525 -137 -132 -144 0
-525 -124 0
-525 -125 0
-525 -127 0
-525 -128 0
-525 -129 0
-525 -130 -147 -152 0
-525 -130 -147 -153 0
-525 -130 -147 -154 0
-525 -131 -147 -153 0
-525 -131 -147 -154 0
-525 -132 -147 -154 0
-525 -130 -148 -152 0
-525 -130 -148 -153 0
-525 -130 -148 -154 0
-525 -131 -148 -153 0
-525 -131 -148 -154 0
-525 -132 -148 -154 0
-525 -130 -156 -161 0
-525 -130 -156 -162 0
-525 -130 -156 -163 0
-525 -131 -156 -162 0
-525 -131 -156 -163 0
-525 -132 -156 -163 0
-525 -130 -157 -161 0
-525 -130 -157 -162 0
-525 -130 -157 -163 0
-525 -131 -157 -162 0
-525 -131 -157 -163 0
-525 -132 -157 -163 0
-525 -130 -158 -161 0
-525 -130 -158 -162 0
-525 -130 -158 -163 0
-525 -131 -158 -162 0
-525 -131 -158 -163 0
-525 -132 -158 -163 0
-525 178 0
-525 -130 183 0
-525 -131 184 0
-525 -132 185 0
-525 -175 0
-526 145 0
-526 -133 0
-526 -138 -130 -142 0
-526 -138 -131 -143 0
-526 -138 -132 -144 0
-526 -124 0
-526 -125 0
-526 -126 0
-526 -128 0
-526 -129 0
-526 -130 -148 -152 0
-526 -130 -148 -153 0
-526 -130 -148 -154 0
-526 -131 -148 -153 0
-526 -131 -148 -154 0
-526 -132 -148 -154 0
-526 -130 -149 -152 0
-526 -130 -149 -153 0
-526 -130 -149 -154 0
-526 -131 -149 -153 0
-526 -131 -149 -154 0
-526 -132 -149 -154 0
-526 -130 -157 -161 0
-526 -130 -157 -162 0
-526 -130 -157 -163 0
-526 -131 -157 -162 0
-526 -131 -157 -163 0
-526 -132 -157 -163 0
-526 -130 -158 -161 0
-526 -130 -158 -162 0
-526 -130 -158 -163 0
-526 -131 -158 -162 0
-526 -131 -158 -163 0
-526 -132 -158 -163 0
-526 -130 -159 -161 0
-526 -130 -159 -162 0
-526 -130 -159 -163 0
-526 -131 -159 -162 0
-526 -131 -159 -163 0
-526 -132 -159 -163 0
-526 179 0
-526 -130 183 0
-526 -131 184 0
-526 -132 185 0
-526 -175 0
-527 145 0
-527 -133 0
-527 -139 -130 -142 0
-527 -139 -131 -143 0
-527 -139 -132 -144 0
-527 -124 0
-527 -125 0
-527 -126 0
-527 -127 0
-527 -129 0
-527 -130 -149 -152 0
-527 -130 -149 -153 0
-527 -130 -149 -154 0
-527 -131 -149 -153 0
-527 -131 -149 -154 0
-527 -132 -149 -154 0
-527 -130 -150 -152 0
-527 -130 -150 -153 0
-527 -130 -150 -154 0
-527 -131 -150 -153 0
-527 -131 -150 -154 0
-527 -132 -150 -154 0
-527 -130 -158 -161 0
-527 -130 -158 -162 0
-527 -130 -158 -163 0
-527 -131 -158 -162 0
-527 -131 -158 -163 0
-527 -132 -158 -163 0
-527 -130 -159 -161 0
-527 -130 -159 -162 0
-527 -130 -159 -163 0
-527 -131 -159 -162 0
-527 -131 -159 -163 0
-527 -132 -159 -163 0
-527 180 0
-527 -130 183 0
-527 -131 184 0
-527 -132 185 0
-527 -175 0
-528 145 0
-528 -133 0
-528 -140 -130 -142 0
-528 -140 -131 -143 0
-528 -140 -132 -144 0
-528 -124 0
-528 -125 0
-528 -126 0
-528 -127 0
-528 -128 0
-528 -130 -150 -152 0
-528 -130 -150 -153 0
-528 -130 -150 -154 0
-528 -131 -150 -153 0
-528 -131 -150 -154 0
-528 -132 -150 -154 0
-528 -130 -159 -161 0
-528 -130 -159 -162 0
-528 -130 -159 -163 0
-528 -131 -159 -162 0
-528 -131 -159 -163 0
-528 -132 -159 -163 0
-528 181 0
-528 -130 183 0
-528 -131 184 0
-528 -132 185 0
-528 -175 0
-529 145 0
-529 -154 0
-529 -135 -151 -142 0
-529 -135 -152 -143 0
-529 -135 -153 -144 0
-529 -147 0
-529 -148 0
-529 -149 0
-529 -150 0
-529 -151 -124 -131 0
-529 -151 -124 -132 0
-529 -151 -124 -133 0
-529 -152 -124 -132 0
-529 -152 -124 -133 0
-529 -153 -124 -133 0
-529 -151 -156 -161 0
-529 -151 -156 -162 0
-529 -151 -156 -163 0
-529 -152 -156 -162 0
-529 -152 -156 -163 0
-529 -153 -156 -163 0
-529 176 0
-529 -151 183 0
-529 -152 184 0
-529 -153 185 0
-529 -196 0
-530 145 0
-530 -154 0
-530 -136 -151 -142 0
-530 -136 -152 -143 0
-530 -136 -153 -144 0
-530 -148 0
-530 -149 0
-530 -150 0
-530 -151 -125 -131 0
-530 -151 -125 -132 0
-530 -151 -125 -133 0
-530 -152 -125 -132 0
-530 -152 -125 -133 0
-530 -153 -125 -133 0
-530 -151 -156 -161 0
-530 -151 -156 -162 0
-530 -151 -156 -163 0
-530 -152 -156 -162 0
-530 -152 -156 -163 0
-530 -153 -156 -163 0
-530 -151 -157 -161 0
-530 -151 -157 -162 0
-530 -151 -157 -163 0
-530 -152 -157 -162 0
-530 -152 -157 -163 0
-530 -153 -157 -163 0
-530 177 0
-530 -151 183 0
-530 -152 184 0
-530 -153 185 0
-530 -196 0
-531 145 0
-531 -154 0
-531 -137 -151 -142 0
-531 -137 -152 -143 0
-531 -137 -153 -144 0
-531 -146 0
-531 -149 0
-531 -150 0
-531 -151 -126 -131 0
-531 -151 -126 -132 0
-531 -151 -126 -133 0
-531 -152 -126 -132 0
-531 -152 -126 -133 0
-531 -153 -126 -133 0
-531 -151 -156 -161 0
-531 -151 -156 -162 0
-531 -151 -156 -163 0
-531 -152 -156 -162 0
-531 -152 -156 -163 0
-531 -153 -156 -163 0
-531 -151 -157 -161 0
-531 -151 -157 -162 0
-531 -151 -157 -163 0
-531 -152 -157 -162 0
-531 -152 -157 -163 0
-531 -153 -157 -163 0
-531 -151 -158 -161 0
-531 -151 -158 -162 0
-531 -151 -158 -163 0
-531 -152 -158 -162 0
-531 -152 -158 -163 0
-531 -153 -158 -163 0
-531 178 0
-531 -151 183 0
-531 -152 184 0
-531 -153 185 0
-531 -196 0
-532 145 0
-532 -154 0
-532 -138 -151 -142 0
-532 -138 -152 -143 0
-532 -138 -153 -144 0
-532 -146 0
-532 -147 0
-532 -150 0
-532 -151 -127 -131 0
-532 -151 -127 -132 0
-532 -151 -127 -133 0
-532 -152 -127 -132 0
-532 -152 -127 -133 0
-532 -153 -127 -133 0
-532 -151 -157 -161 0
-532 -151 -157 -162 0
-532 -151 -157 -163 0
-532 -152 -157 -162 0
-532 -152 -157 -163 0
-532 -153 -157 -163 0
-532 -151 -158 -161 0
-532 -151 -158 -162 0
-532 -151 -158 -163 0
-532 -152 -158 -162 0
-532 -152 -158 -163 0
-532 -153 -158 -163 0
-532 -151 -159 -161 0
-532 -151 -159 -162 0
-532 -151 -159 -163 0
-532 -152 -159 -162 0
-532 -152 -159 -163 0
-532 -153 -159 -163 0
-532 179 0
-532 -151 183 0
-532 -152 184 0
-532 -153 185 0
-532 -196 0
-533 145 0
-533 -154 0
-533 -139 -151 -142 0
-533 -139 -152 -143 0
-533 -139 -153 -144 0
-533 -146 0
-533 -147 0
-533 -148 0
-533 -151 -128 -131 0
-533 -151 -128 -132 0
-533 -151 -128 -133 0
-533 -152 -128 -132 0
-533 -152 -128 -133 0
-533 -153 -128 -133 0
-533 -151 -158 -161 0
-533 -151 -158 -162 0
-533 -151 -158 -163 0
-533 -152 -158 -162 0
-533 -152 -158 -163 0
-533 -153 -158 -163 0
-533 -151 -159 -161 0
-533 -151 -159 -162 0
-533 -151 -159 -163 0
-533 -152 -159 -162 0
-533 -152 -159 -163 0
-533 -153 -159 -163 0
-533 180 0
-533 -151 183 0
-533 -152 184 0
-533 -153 185 0
-533 -196 0
-534 145 0
-534 -154 0
-534 -140 -151 -142 0
-534 -140 -152 -143 0
-534 -140 -153 -144 0
-534 -146 0
-534 -147 0
-534 -148 0
-534 -149 0
-534 -151 -129 -131 0
-534 -151 -129 -132 0
-534 -151 -129 -133 0
-534 -152 -129 -132 0
-534 -152 -129 -133 0
-534 -153 -129 -133 0
-534 -151 -159 -161 0
-534 -151 -159 -162 0
-534 -151 -159 -163 0
-534 -152 -159 -162 0
-534 -152 -159 -163 0
-534 -153 -159 -163 0
-534 181 0
-534 -151 183 0
-534 -152 184 0
-534 -153 185 0
-534 -196 0
-535 145 0
-535 -163 0
-535 -135 -160 -142 0
-535 -135 -161 -143 0
-535 -135 -162 -144 0
-535 -157 0
-535 -158 0
-535 -159 0
-535 -160 -124 -131 0
-535 -160 -124 -132 0
-535 -160 -124 -133 0
-535 -161 -124 -132 0
-535 -161 -124 -133 0
-535 -162 -124 -133 0
-535 -160 -146 -152 0
-535 -160 -146 -153 0
-535 -160 -146 -154 0
-535 -161 -146 -153 0
-535 -161 -146 -154 0
-535 -162 -146 -154 0
-535 176 0
-535 -160 183 0
-535 -161 184 0
-535 -162 185 0
-535 -205 0
-536 145 0
-536 -163 0
-536 -136 -160 -142 0
-536 -136 -161 -143 0
-536 -136 -162 -144 0
-536 -158 0
-536 -159 0
-536 -160 -125 -131 0
-536 -160 -125 -132 0
-536 -160 -125 -133 0
-536 -161 -125 -132 0
-536 -161 -125 -133 0
-536 -162 -125 -133 0
-536 -160 -146 -152 0
-536 -160 -146 -153 0
-536 -160 -146 -154 0
-536 -161 -146 -153 0
-536 -161 -146 -154 0
-536 -162 -146 -154 0
-536 -160 -147 -152 0
-536 -160 -147 -153 0
-536 -160 -147 -154 0
-536 -161 -147 -153 0
-536 -161 -147 -154 0
-536 -162 -147 -154 0
-536 177 0
-536 -160 183 0
-536 -161 184 0
-536 -162 185 0
-536 -205 0
-537 145 0
-537 -163 0
-537 -137 -160 -142 0
-537 -137 -161 -143 0
-537 -137 -162 -144 0
-537 -159 0
-537 -160 -126 -131 0
-537 -160 -126 -132 0
-537 -160 -126 -133 0
-537 -161 -126 -132 0
-537 -161 -126 -133 0
-537 -162 -126 -133 0
-537 -160 -147 -152 0
-537 -160 -147 -153 0
-537 -160 -147 -154 0
-537 -161 -147 -153 0
-537 -161 -147 -154 0
-537 -162 -147 -154 0
-537 -160 -148 -152 0
-537 -160 -148 -153 0
-537 -160 -148 -154 0
-537 -161 -148 -153 0
-537 -161 -148 -154 0
-537 -162 -148 -154 0
-537 178 0
-537 -160 183 0
-537 -161 184 0
-537 -162 185 0
-537 -205 0
-538 145 0
-538 -163 0
-538 -138 -160 -142 0
-538 -138 -161 -143 0
-538 -138 -162 -144 0
-538 -156 0
-538 -160 -127 -131 0
-538 -160 -127 -132 0
-538 -160 -127 -133 0
-538 -161 -127 -132 0
-538 -161 -127 -133 0
-538 -162 -127 -133 0
-538 -160 -148 -152 0
-538 -160 -148 -153 0
-538 -160 -148 -154 0
-538 -161 -148 -153 0
-538 -161 -148 -154 0
-538 -162 -148 -154 0
-538 -160 -149 -152 0
-538 -160 -149 -153 0
-538 -160 -149 -154 0
-538 -161 -149 -153 0
-538 -161 -149 -154 0
-538 -162 -149 -154 0
-538 179 0
-538 -160 183 0
-538 -161 184 0
-538 -162 185 0
-538 -205 0
-539 145 0
-539 -163 0
-539 -139 -160 -142 0
-539 -139 -161 -143 0
-539 -139 -162 -144 0
-539 -156 0
-539 -157 0
-539 -160 -128 -131 0
-539 -160 -128 -132 0
-539 -160 -128 -133 0
-539 -161 -128 -132 0
-539 -161 -128 -133 0
-539 -162 -128 -133 0
-539 -160 -149 -152 0
-539 -160 -149 -153 0
-539 -160 -149 -154 0
-539 -161 -149 -153 0
-539 -161 -149 -154 0
-539 -162 -149 -154 0
-539 -160 -150 -152 0
-539 -160 -150 -153 0
-539 -160 -150 -154 0
-539 -161 -150 -153 0
-539 -161 -150 -154 0
-539 -162 -150 -154 0
-539 180 0
-539 -160 183 0
-539 -161 184 0
-539 -162 185 0
-539 -205 0
-540 145 0
-540 -163 0
-540 -140 -160 -142 0
-540 -140 -161 -143 0
-540 -140 -162 -144 0
-540 -156 0
-540 -157 0
-540 -158 0
-540 -160 -129 -131 0
-540 -160 -129 -132 0
-540 -160 -129 -133 0
-540 -161 -129 -132 0
-540 -161 -129 -133 0
-540 -162 -129 -133 0
-540 -160 -150 -152 0
-540 -160 -150 -153 0
-540 -160 -150 -154 0
-540 -161 -150 -153 0
-540 -161 -150 -154 0
-540 -162 -150 -154 0
-540 181 0
-540 -160 183 0
-540 -161 184 0
-540 -162 185 0
-540 -205 0
-541 145 0
-541 -135 -141 0
-541 -124 -130 0
-541 -124 -131 0
-541 -124 -132 0
-541 -124 -133 0
-541 -146 -151 0
-541 -146 -152 0
-541 -146 -153 0
-541 -146 -154 0
-541 -156 -160 0
-541 -156 -161 0
-541 -156 -162 0
-541 -156 -163 0
-541 176 0
-541 182 0
-542 145 0
-542 -136 -141 0
-542 -125 -130 0
-542 -125 -131 0
-542 -125 -132 0
-542 -125 -133 0
-542 -146 -151 0
-542 -146 -152 0
-542 -146 -153 0
-542 -146 -154 0
-542 -147 -151 0
-542 -147 -152 0
-542 -147 -153 0
-542 -147 -154 0
-542 -156 -160 0
-542 -156 -161 0
-542 -156 -162 0
-542 -156 -163 0
-542 -157 -160 0
-542 -157 -161 0
-542 -157 -162 0
-542 -157 -163 0
-542 177 0
-542 182 0
-543 145 0
-543 -137 -141 0
-543 -126 -130 0
-543 -126 -131 0
-543 -126 -132 0
-543 -126 -133 0
-543 -147 -151 0
-543 -147 -152 0
-543 -147 -153 0
-543 -147 -154 0
-543 -148 -151 0
-543 -148 -152 0
-543 -148 -153 0
-543 -148 -154 0
-543 -156 -160 0
-543 -156 -161 0
-543 -156 -162 0
-543 -156 -163 0
-543 -157 -160 0
-543 -157 -161 0
-543 -157 -162 0
-543 -157 -163 0
-543 -158 -160 0
-543 -158 -161 0
-543 -158 -162 0
-543 -158 -163 0
-543 178 0
-543 182 0
-544 145 0
-544 -138 -141 0
-544 -127 -130 0
-544 -127 -131 0
-544 -127 -132 0
-544 -127 -133 0
-544 -148 -151 0
-544 -148 -152 0
-544 -148 -153 0
-544 -148 -154 0
-544 -149 -151 0
-544 -149 -152 0
-544 -149 -153 0
-544 -149 -154 0
-544 -157 -160 0
-544 -157 -161 0
-544 -157 -162 0
-544 -157 -163 0
-544 -158 -160 0
-544 -158 -161 0
-544 -158 -162 0
-544 -158 -163 0
-544 -159 -160 0
-544 -159 -161 0
-544 -159 -162 0
-544 -159 -163 0
-544 179 0
-544 182 0
-545 145 0
-545 -139 -141 0
-545 -128 -130 0
-545 -128 -131 0
-545 -128 -132 0
-545 -128 -133 0
-545 -149 -151 0
-545 -149 -152 0
-545 -149 -153 0
-545 -149 -154 0
-545 -150 -151 0
-545 -150 -152 0
-545 -150 -153 0
-545 -150 -154 0
-545 -158 -160 0
-545 -158 -161 0
-545 -158 -162 0
-545 -158 -163 0
-545 -159 -160 0
-545 -159 -161 0
-545 -159 -162 0
-545 -159 -163 0
-545 180 0
-545 182 0
-546 145 0
-546 -140 -141 0
-546 -129 -130 0
-546 -129 -131 0
-546 -129 -132 0
-546 -129 -133 0
-546 -150 -151 0
-546 -150 -152 0
-546 -150 -153 0
-546 -150 -154 0
-546 -159 -160 0
-546 -159 -161 0
-546 -159 -162 0
-546 -159 -163 0
-546 181 0
-546 182 0
-547 155 0
-547 -133 0
-547 -146 -130 -152 0
-547 -146 -131 -153 0
-547 -146 -132 -154 0
-547 -126 0
-547 -127 0
-547 -128 0
-547 -129 0
-547 -130 -135 -142 0
-547 -130 -135 -143 0
-547 -130 -135 -144 0
-547 -131 -135 -143 0
-547 -131 -135 -144 0
-547 -132 -135 -144 0
-547 -130 -136 -142 0
-547 -130 -136 -143 0
-547 -130 -136 -144 0
-547 -131 -136 -143 0
-547 -131 -136 -144 0
-547 -132 -136 -144 0
-547 -130 -156 -161 0
-547 -130 -156 -162 0
-547 -130 -156 -163 0
-547 -131 -156 -162 0
-547 -131 -156 -163 0
-547 -132 -156 -163 0
-547 -130 -157 -161 0
-547 -130 -157 -162 0
-547 -130 -157 -163 0
-547 -131 -157 -162 0
-547 -131 -157 -163 0
-547 -132 -157 -163 0
-547 187 0
-547 -130 193 0
-547 -131 194 0
-547 -132 195 0
-547 -175 0
-548 155 0
-548 -133 0
-548 -147 -130 -152 0
-548 -147 -131 -153 0
-548 -147 -132 -154 0
-548 -124 0
-548 -127 0
-548 -128 0
-548 -129 0
-548 -130 -136 -142 0
-548 -130 -136 -143 0
-548 -130 -136 -144 0
-548 -131 -136 -143 0
-548 -131 -136 -144 0
-548 -132 -136 -144 0
-548 -130 -137 -142 0
-548 -130 -137 -143 0
-548 -130 -137 -144 0
-548 -131 -137 -143 0
-548 -131 -137 -144 0
-548 -132 -137 -144 0
-548 -130 -156 -161 0
-548 -130 -156 -162 0
-548 -130 -156 -163 0
-548 -131 -156 -162 0
-548 -131 -156 -163 0
-548 -132 -156 -163 0
-548 -130 -157 -161 0
-548 -130 -157 -162 0
-548 -130 -157 -163 0
-548 -131 -157 -162 0
-548 -131 -157 -163 0
-548 -132 -157 -163 0
-548 -130 -158 -161 0
-548 -130 -158 -162 0
-548 -130 -158 -163 0
-548 -131 -158 -162 0
-548 -131 -158 -163 0
-548 -132 -158 -163 0
-548 188 0
-548 -130 193 0
-548 -131 194 0
-548 -132 195 0
-548 -175 0
-549 155 0
-549 -133 0
-549 -148 -130 -152 0
-549 -148 -131 -153 0
-549 -148 -132 -154 0
-549 -124 0
-549 -125 0
-549 -128 0
-549 -129 0
-549 -130 -137 -142 0
-549 -130 -137 -143 0
-549 -130 -137 -144 0
-549 -131 -137 -143 0
-549 -131 -137 -144 0
-549 -132 -137 -144 0
-549 -130 -138 -142 0
-549 -130 -138 -143 0
-549 -130 -138 -144 0
-549 -131 -138 -143 0
-549 -131 -138 -144 0
-549 -132 -138 -144 0
-549 -130 -156 -161 0
-549 -130 -156 -162 0
-549 -130 -156 -163 0
-549 -131 -156 -162 0
-549 -131 -156 -163 0
-549 -132 -156 -163 0
-549 -130 -157 -161 0
-549 -130 -157 -162 0
-549 -130 -157 -163 0
-549 -131 -157 -162 0
-549 -131 -157 -163 0
-549 -132 -157 -163 0
-549 -130 -158 -161 0
-549 -130 -158 -162 0
-549 -130 -158 -163 0
-549 -131 -158 -162 0
-549 -131 -158 -163 0
-549 -132 -158 -163 0
-549 -130 -159 -161 0
-549 -130 -159 -162 0
-549 -130 -159 -163 0
-549 -131 -159 -162 0
-549 -131 -159 -163 0
-549 -132 -159 -163 0
-549 189 0
-549 -130 193 0
-549 -131 194 0
-549 -132 195 0
-549 -175 0
-550 155 0
-550 -133 0
-550 -149 -130 -152 0
-550 -149 -131 -153 0
-550 -149 -132 -154 0
-550 -124 0
-550 -125 0
-550 -126 0
-550 -129 0
-550 -130 -138 -142 0
-550 -130 -138 -143 0
-550 -130 -138 -144 0
-550 -131 -138 -143 0
-550 -131 -138 -144 0
-550 -132 -138 -144 0
-550 -130 -139 -142 0
-550 -130 -139 -143 0
-550 -130 -139 -144 0
-550 -131 -139 -143 0
-550 -131 -139 -144 0
-550 -132 -139 -144 0
-550 -130 -157 -161 0
-550 -130 -157 -162 0
-550 -130 -157 -163 0
-550 -131 -157 -162 0
-550 -131 -157 -163 0
-550 -132 -157 -163 0
-550 -130 -158 -161 0
-550 -130 -158 -162 0
-550 -130 -158 -163 0
-550 -131 -158 -162 0
-550 -131 -158 -163 0
-550 -132 -158 -163 0
-550 -130 -159 -161 0
-550 -130 -159 -162 0
-550 -130 -159 -163 0
-550 -131 -159 -162 0
-550 -131 -159 -163 0
-550 -132 -159 -163 0
-550 190 0
-550 -130 193 0
-550 -131 194 0
-550 -132 195 0
-550 -175 0
-551 155 0
-551 -133 0
-551 -150 -130 -152 0
-551 -150 -131 -153 0
-551 -150 -132 -154 0
-551 -124 0
-551 -125 0
-551 -126 0
-551 -127 0
-551 -130 -139 -142 0
-551 -130 -139 -143 0
-551 -130 -139 -144 0
-551 -131 -139 -143 0
-551 -131 -139 -144 0
-551 -132 -139 -144 0
-551 -130 -140 -142 0
-551 -130 -140 -143 0
-551 -130 -140 -144 0
-551 -131 -140 -143 0
-551 -131 -140 -144 0
-551 -132 -140 -144 0
-551 -130 -158 -161 0
-551 -130 -158 -162 0
-551 -130 -158 -163 0
-551 -131 -158 -162 0
-551 -131 -158 -163 0
-551 -132 -158 -163 0
-551 -130 -159 -161 0
-551 -130 -159 -162 0
-551 -130 -159 -163 0
-551 -131 -159 -162 0
-551 -131 -159 -163 0
-551 -132 -159 -163 0
-551 191 0
-551 -130 193 0
-551 -131 194 0
-551 -132 195 0
-551 -175 0
-552 155 0
-552 -144 0
-552 -146 -141 -152 0
-552 -146 -142 -153 0
-552 -146 -143 -154 0
-552 -137 0
-552 -138 0
-552 -139 0
-552 -140 0
-552 -141 -124 -131 0
-552 -141 -124 -132 0
-552 -141 -124 -133 0
-552 -142 -124 -132 0
-552 -142 -124 -133 0
-552 -143 -124 -133 0
-552 -141 -125 -131 0
-552 -141 -125 -132 0
-552 -141 -125 -133 0
-552 -142 -125 -132 0
-552 -142 -125 -133 0
-552 -143 -125 -133 0
-552 -141 -156 -161 0
-552 -141 -156 -162 0
-552 -141 -156 -163 0
-552 -142 -156 -162 0
-552 -142 -156 -163 0
-552 -143 -156 -163 0
-552 -141 -157 -161 0
-552 -141 -157 -162 0
-552 -141 -157 -163 0
-552 -142 -157 -162 0
-552 -142 -157 -163 0
-552 -143 -157 -163 0
-552 187 0
-552 -141 193 0
-552 -142 194 0
-552 -143 195 0
-552 -186 0
-553 155 0
-553 -144 0
-553 -147 -141 -152 0
-553 -147 -142 -153 0
-553 -147 -143 -154 0
-553 -135 0
-553 -138 0
-553 -139 0
-553 -140 0
-553 -141 -125 -131 0
-553 -141 -125 -132 0
-553 -141 -125 -133 0
-553 -142 -125 -132 0
-553 -142 -125 -133 0
-553 -143 -125 -133 0
-553 -141 -126 -131 0
-553 -141 -126 -132 0
-553 -141 -126 -133 0
-553 -142 -126 -132 0
-553 -142 -126 -133 0
-553 -143 -126 -133 0
-553 -141 -156 -161 0
-553 -141 -156 -162 0
-553 -141 -156 -163 0
-553 -142 -156 -162 0
-553 -142 -156 -163 0
-553 -143 -156 -163 0
-553 -141 -157 -161 0
-553 -141 -157 -162 0
-553 -141 -157 -163 0
-553 -142 -157 -162 0
-553 -142 -157 -163 0
-553 -143 -157 -163 0
-553 -141 -158 -161 0
-553 -141 -158 -162 0
-553 -141 -158 -163 0
-553 -142 -158 -162 0
-553 -142 -158 -163 0
-553 -143 -158 -163 0
-553 188 0
-553 -141 193 0
-553 -142 194 0
-553 -143 195 0
-553 -186 0
-554 155 0
-554 -144 0
-554 -148 -141 -152 0
-554 -148 -142 -153 0
-554 -148 -143 -154 0
-554 -135 0
-554 -136 0
-554 -139 0
-554 -140 0
-554 -141 -126 -131 0
-554 -141 -126 -132 0
-554 -141 -126 -133 0
-554 -142 -126 -132 0
-554 -142 -126 -133 0
-554 -143 -126 -133 0
-554 -141 -127 -131 0
-554 -141 -127 -132 0
-554 -141 -127 -133 0
-554 -142 -127 -132 0
-554 -142 -127 -133 0
-554 -143 -127 -133 0
-554 -141 -156 -161 0
-554 -141 -156 -162 0
-554 -141 -156 -163 0
-554 -142 -156 -162 0
-554 -142 -156 -163 0
-554 -143 -156 -163 0
-554 -141 -157 -161 0
-554 -141 -157 -162 0
-554 -141 -157 -163 0
-554 -142 -157 -162 0
-554 -142 -157 -163 0
-554 -143 -157 -163 0
-554 -141 -158 -161 0
-554 -141 -158 -162 0
-554 -141 -158 -163 0
-554 -142 -158 -162 0
-554 -142 -158 -163 0
-554 -143 -158 -163 0
-554 -141 -159 -161 0
-554 -141 -159 -162 0
-554 -141 -159 -163 0
-554 -142 -159 -162 0
-554 -142 -159 -163 0
-554 -143 -159 -163 0
-554 189 0
-554 -141 193 0
-554 -142 194 0
-554 -143 195 0
-554 -186 0
-555 155 0
-555 -144 0
-555 -149 -141 -152 0
-555 -149 -142 -153 0
-555 -149 -143 -154 0
-555 -135 0
-555 -136 0
-555 -137 0
-555 -140 0
-555 -141 -127 -131 0
-555 -141 -127 -132 0
-555 -141 -127 -133 0
-555 -142 -127 -132 0
-555 -142 -127 -133 0
-555 -143 -127 -133 0
-555 -141 -128 -131 0
-555 -141 -128 -132 0
-555 -141 -128 -133 0
-555 -142 -128 -132 0
-555 -142 -128 -133 0
-555 -143 -128 -133 0
-555 -141 -157 -161 0
-555 -141 -157 -162 0
-555 -141 -157 -163 0
-555 -142 -157 -162 0
-555 -142 -157 -163 0
-555 -143 -157 -163 0
-555 -141 -158 -161 0
-555 -141 -158 -162 0
-555 -141 -158 -163 0
-555 -142 -158 -162 0
-555 -142 -158 -163 0
-555 -143 -158 -163 0
-555 -141 -159 -161 0
-555 -141 -159 -162 0
-555 -141 -159 -163 0
-555 -142 -159 -162 0
-555 -142 -159 -163 0
-555 -143 -159 -163 0
-555 190 0
-555 -141 193 0
-555 -142 194 0
-555 -143 195 0
-555 -186 0
-556 155 0
-556 -144 0
-556 -150 -141 -152 0
-556 -150 -142 -153 0
-556 -150 -143 -154 0
-556 -135 0
-556 -136 0
-556 -137 0
-556 -138 0
-556 -141 -128 -131 0
-556 -141 -128 -132 0
-556 -141 -128 -133 0
-556 -142 -128 -132 0
-556 -142 -128 -133 0
-556 -143 -128 -133 0
-556 -141 -129 -131 0
-556 -141 -129 -132 0
-556 -141 -129 -133 0
-556 -142 -129 -132 0
-556 -142 -129 -133 0
-556 -143 -129 -133 0
-556 -141 -158 -161 0
-556 -141 -158 -162 0
-556 -141 -158 -163 0
-556 -142 -158 -162 0
-556 -142 -158 -163 0
-556 -143 -158 -163 0
-556 -141 -159 -161 0
-556 -141 -159 -162 0
-556 -141 -159 -163 0
-556 -142 -159 -162 0
-556 -142 -159 -163 0
-556 -143 -159 -163 0
-556 191 0
-556 -141 193 0
-556 -142 194 0
-556 -143 195 0
-556 -186 0
-557 155 0
-557 -163 0
-557 -146 -160 -152 0
-557 -146 -161 -153 0
-557 -146 -162 -154 0
-557 -158 0
-557 -159 0
-557 -160 -124 -131 0
-557 -160 -124 -132 0
-557 -160 -124 -133 0
-557 -161 -124 -132 0
-557 -161 -124 -133 0
-557 -162 -124 -133 0
-557 -160 -125 -131 0
-557 -160 -125 -132 0
-557 -160 -125 -133 0
-557 -161 -125 -132 0
-557 -161 -125 -133 0
-557 -162 -125 -133 0
-557 -160 -135 -142 0
-557 -160 -135 -143 0
-557 -160 -135 -144 0
-557 -161 -135 -143 0
-557 -161 -135 -144 0
-557 -162 -135 -144 0
-557 -160 -136 -142 0
-557 -160 -136 -143 0
-557 -160 -136 -144 0
-557 -161 -136 -143 0
-557 -161 -136 -144 0
-557 -162 -136 -144 0
-557 187 0
-557 -160 193 0
-557 -161 194 0
-557 -162 195 0
-557 -205 0
-558 155 0
-558 -163 0
-558 -147 -160 -152 0
-558 -147 -161 -153 0
-558 -147 -162 -154 0
-558 -159 0
-558 -160 -125 -131 0
-558 -160 -125 -132 0
-558 -160 -125 -133 0
-558 -161 -125 -132 0
-558 -161 -125 -133 0
-558 -162 -125 -133 0
-558 -160 -126 -131 0
-558 -160 -126 -132 0
-558 -160 -126 -133 0
-558 -161 -126 -132 0
-558 -161 -126 -133 0
-558 -162 -126 -133 0
-558 -160 -136 -142 0
-558 -160 -136 -143 0
-558 -160 -136 -144 0
-558 -161 -136 -143 0
-558 -161 -136 -144 0
-558 -162 -136 -144 0
-558 -160 -137 -142 0
-558 -160 -137 -143 0
-558 -160 -137 -144 0
-558 -161 -137 -143 0
-558 -161 -137 -144 0
-558 -162 -137 -144 0
-558 188 0
-558 -160 193 0
-558 -161 194 0
-558 -162 195 0
-558 -205 0
-559 155 0
-559 -163 0
-559 -148 -160 -152 0
-559 -148 -161 -153 0
-559 -148 -162 -154 0
-559 -160 -126 -131 0
-559 -160 -126 -132 0
-559 -160 -126 -133 0
-559 -161 -126 -132 0
-559 -161 -126 -133 0
-559 -162 -126 -133 0
-559 -160 -127 -131 0
-559 -160 -127 -132 0
-559 -160 -127 -133 0
-559 -161 -127 -132 0
-559 -161 -127 -133 0
-559 -162 -127 -133 0
-559 -160 -137 -142 0
-559 -160 -137 -143 0
-559 -160 -137 -144 0
-559 -161 -137 -143 0
-559 -161 -137 -144 0
-559 -162 -137 -144 0
-559 -160 -138 -142 0
-559 -160 -138 -143 0
-559 -160 -138 -144 0
-559 -161 -138 -143 0
-559 -161 -138 -144 0
-559 -162 -138 -144 0
-559 189 0
-559 -160 193 0
-559 -161 194 0
-559 -162 195 0
-559 -205 0
-560 155 0
-560 -163 0
-560 -149 -160 -152 0
-560 -149 -161 -153 0
-560 -149 -162 -154 0
-560 -156 0
-560 -160 -127 -131 0
-560 -160 -127 -132 0
-560 -160 -127 -133 0
-560 -161 -127 -132 0
-560 -161 -127 -133 0
-560 -162 -127 -133 0
-560 -160 -128 -131 0
-560 -160 -128 -132 0
-560 -160 -128 -133 0
-560 -161 -128 -132 0
-560 -161 -128 -133 0
-560 -162 -128 -133 0
-560 -160 -138 -142 0
-560 -160 -138 -143 0
-560 -160 -138 -144 0
-560 -161 -138 -143 0
-560 -161 -138 -144 0
-560 -162 -138 -144 0
-560 -160 -139 -142 0
-560 -160 -139 -143 0
-560 -160 -139 -144 0
-560 -161 -139 -143 0
-560 -161 -139 -144 0
-560 -162 -139 -144 0
-560 190 0
-560 -160 193 0
-560 -161 194 0
-560 -162 195 0
-560 -205 0
-561 155 0
-561 -163 0
-561 -150 -160 -152 0
-561 -150 -161 -153 0
-561 -150 -162 -154 0
-561 -156 0
-561 -157 0
-561 -160 -128 -131 0
-561 -160 -128 -132 0
-561 -160 -128 -133 0
-561 -161 -128 -132 0
-561 -161 -128 -133 0
-561 -162 -128 -133 0
-561 -160 -129 -131 0
-561 -160 -129 -132 0
-561 -160 -129 -133 0
-561 -161 -129 -132 0
-561 -161 -129 -133 0
-561 -162 -129 -133 0
-561 -160 -139 -142 0
-561 -160 -139 -143 0
-561 -160 -139 -144 0
-561 -161 -139 -143 0
-561 -161 -139 -144 0
-561 -162 -139 -144 0
-561 -160 -140 -142 0
-561 -160 -140 -143 0
-561 -160 -140 -144 0
-561 -161 -140 -143 0
-561 -161 -140 -144 0
-561 -162 -140 -144 0
-561 191 0
-561 -160 193 0
-561 -161 194 0
-561 -162 195 0
-561 -205 0
-562 155 0
-562 -146 -151 0
-562 -124 -130 0
-562 -124 -131 0
-562 -124 -132 0
-562 -124 -133 0
-562 -125 -130 0
-562 -125 -131 0
-562 -125 -132 0
-562 -125 -133 0
-562 -135 -141 0
-562 -135 -142 0
-562 -135 -143 0
-562 -135 -144 0
-562 -136 -141 0
-562 -136 -142 0
-562 -136 -143 0
-562 -136 -144 0
-562 -156 -160 0
-562 -156 -161 0
-562 -156 -162 0
-562 -156 -163 0
-562 -157 -160 0
-562 -157 -161 0
-562 -157 -162 0
-562 -157 -163 0
-562 187 0
-562 192 0
-563 155 0
-563 -147 -151 0
-563 -125 -130 0
-563 -125 -131 0
-563 -125 -132 0
-563 -125 -133 0
-563 -126 -130 0
-563 -126 -131 0
-563 -126 -132 0
-563 -126 -133 0
-563 -136 -141 0
-563 -136 -142 0
-563 -136 -143 0
-563 -136 -144 0
-563 -137 -141 0
-563 -137 -142 0
-563 -137 -143 0
-563 -137 -144 0
-563 -156 -160 0
-563 -156 -161 0
-563 -156 -162 0
-563 -156 -163 0
-563 -157 -160 0
-563 -157 -161 0
-563 -157 -162 0
-563 -157 -163 0
-563 -158 -160 0
-563 -158 -161 0
-563 -158 -162 0
-563 -158 -163 0
-563 188 0
-563 192 0
-564 155 0
-564 -148 -151 0
-564 -126 -130 0
-564 -126 -131 0
-564 -126 -132 0
-564 -126 -133 0
-564 -127 -130 0
-564 -127 -131 0
-564 -127 -132 0
-564 -127 -133 0
-564 -137 -141 0
-564 -137 -142 0
-564 -137 -143 0
-564 -137 -144 0
-564 -138 -141 0
-564 -138 -142 0
-564 -138 -143 0
-564 -138 -144 0
-564 -156 -160 0
-564 -156 -161 0
-564 -156 -162 0
-564 -156 -163 0
-564 -157 -160 0
-564 -157 -161 0
-564 -157 -162 0
-564 -157 -163 0
-564 -158 -160 0
-564 -158 -161 0
-564 -158 -162 0
-564 -158 -163 0
-564 -159 -160 0
-564 -159 -161 0
-564 -159 -162 0
-564 -159 -163 0
-564 189 0
-564 192 0
-565 155 0
-565 -149 -151 0
-565 -127 -130 0
-565 -127 -131 0
-565 -127 -132 0
-565 -127 -133 0
-565 -128 -130 0
-565 -128 -131 0
-565 -128 -132 0
-565 -128 -133 0
-565 -138 -141 0
-565 -138 -142 0
-565 -138 -143 0
-565 -138 -144 0
-565 -139 -141 0
-565 -139 -142 0
-565 -139 -143 0
-565 -139 -144 0
-565 -157 -160 0
-565 -157 -161 0
-565 -157 -162 0
-565 -157 -163 0
-565 -158 -160 0
-565 -158 -161 0
-565 -158 -162 0
-565 -158 -163 0
-565 -159 -160 0
-565 -159 -161 0
-565 -159 -162 0
-565 -159 -163 0
-565 190 0
-565 192 0
-566 155 0
-566 -150 -151 0
-566 -128 -130 0
-566 -128 -131 0
-566 -128 -132 0
-566 -128 -133 0
-566 -129 -130 0
-566 -129 -131 0
-566 -129 -132 0
-566 -129 -133 0
-566 -139 -141 0
-566 -139 -142 0
-566 -139 -143 0
-566 -139 -144 0
-566 -140 -141 0
-566 -140 -142 0
-566 -140 -143 0
-566 -140 -144 0
-566 -158 -160 0
-566 -158 -161 0
-566 -158 -162 0
-566 -158 -163 0
-566 -159 -160 0
-566 -159 -161 0
-566 -159 -162 0
-566 -159 -163 0
-566 191 0
-566 192 0
-567 164 0
-567 -133 0
-567 -156 -130 -161 0
-567 -156 -131 -162 0
-567 -156 -132 -163 0
-567 -127 0
-567 -128 0
-567 -129 0
-567 -130 -135 -142 0
-567 -130 -135 -143 0
-567 -130 -135 -144 0
-567 -131 -135 -143 0
-567 -131 -135 -144 0
-567 -132 -135 -144 0
-567 -130 -136 -142 0
-567 -130 -136 -143 0
-567 -130 -136 -144 0
-567 -131 -136 -143 0
-567 -131 -136 -144 0
-567 -132 -136 -144 0
-567 -130 -137 -142 0
-567 -130 -137 -143 0
-567 -130 -137 -144 0
-567 -131 -137 -143 0
-567 -131 -137 -144 0
-567 -132 -137 -144 0
-567 -130 -146 -152 0
-567 -130 -146 -153 0
-567 -130 -146 -154 0
-567 -131 -146 -153 0
-567 -131 -146 -154 0
-567 -132 -146 -154 0
-567 -130 -147 -152 0
-567 -130 -147 -153 0
-567 -130 -147 -154 0
-567 -131 -147 -153 0
-567 -131 -147 -154 0
-567 -132 -147 -154 0
-567 -130 -148 -152 0
-567 -130 -148 -153 0
-567 -130 -148 -154 0
-567 -131 -148 -153 0
-567 -131 -148 -154 0
-567 -132 -148 -154 0
-567 197 0
-567 -130 202 0
-567 -131 203 0
-567 -132 204 0
-567 -175 0
-568 164 0
-568 -133 0
-568 -157 -130 -161 0
-568 -157 -131 -162 0
-568 -157 -132 -163 0
-568 -124 0
-568 -128 0
-568 -129 0
-568 -130 -136 -142 0
-568 -130 -136 -143 0
-568 -130 -136 -144 0
-568 -131 -136 -143 0
-568 -131 -136 -144 0
-568 -132 -136 -144 0
-568 -130 -137 -142 0
-568 -130 -137 -143 0
-568 -130 -137 -144 0
-568 -131 -137 -143 0
-568 -131 -137 -144 0
-568 -132 -137 -144 0
-568 -130 -138 -142 0
-568 -130 -138 -143 0
-568 -130 -138 -144 0
-568 -131 -138 -143 0
-568 -131 -138 -144 0
-568 -132 -138 -144 0
-568 -130 -146 -152 0
-568 -130 -146 -153 0
-568 -130 -146 -154 0
-568 -131 -146 -153 0
-568 -131 -146 -154 0
-568 -132 -146 -154 0
-568 -130 -147 -152 0
-568 -130 -147 -153 0
-568 -130 -147 -154 0
-568 -131 -147 -153 0
-568 -131 -147 -154 0
-568 -132 -147 -154 0
-568 -130 -148 -152 0
-568 -130 -148 -153 0
-568 -130 -148 -154 0
-568 -131 -148 -153 0
-568 -131 -148 -154 0
-568 -132 -148 -154 0
-568 -130 -149 -152 0
-568 -130 -149 -153 0
-568 -130 -149 -154 0
-568 -131 -149 -153 0
-568 -131 -149 -154 0
-568 -132 -149 -154 0
-568 198 0
-568 -130 202 0
-568 -131 203 0
-568 -132 204 0
-568 -175 0
-569 164 0
-569 -133 0
-569 -158 -130 -161 0
-569 -158 -131 -162 0
-569 -158 -132 -163 0
-569 -124 0
-569 -125 0
-569 -129 0
-569 -130 -137 -142 0
-569 -130 -137 -143 0
-569 -130 -137 -144 0
-569 -131 -137 -143 0
-569 -131 -137 -144 0
-569 -132 -137 -144 0
-569 -130 -138 -142 0
-569 -130 -138 -143 0
-569 -130 -138 -144 0
-569 -131 -138 -143 0
-569 -131 -138 -144 0
-569 -132 -138 -144 0
-569 -130 -139 -142 0
-569 -130 -139 -143 0
-569 -130 -139 -144 0
-569 -131 -139 -143 0
-569 -131 -139 -144 0
-569 -132 -139 -144 0
-569 -130 -147 -152 0
-569 -130 -147 -153 0
-569 -130 -147 -154 0
-569 -131 -147 -153 0
-569 -131 -147 -154 0
-569 -132 -147 -154 0
-569 -130 -148 -152 0
-569 -130 -148 -153 0
-569 -130 -148 -154 0
-569 -131 -148 -153 0
-569 -131 -148 -154 0
-569 -132 -148 -154 0
-569 -130 -149 -152 0
-569 -130 -149 -153 0
-569 -130 -149 -154 0
-569 -131 -149 -153 0
-569 -131 -149 -154 0
-569 -132 -149 -154 0
-569 -130 -150 -152 0
-569 -130 -150 -153 0
-569 -130 -150 -154 0
-569 -131 -150 -153 0
-569 -131 -150 -154 0
-569 -132 -150 -154 0
-569 199 0
-569 -130 202 0
-569 -131 203 0
-569 -132 204 0
-569 -175 0
-570 164 0
-570 -133 0
-570 -159 -130 -161 0
-570 -159 -131 -162 0
-570 -159 -132 -163 0
-570 -124 0
-570 -125 0
-570 -126 0
-570 -130 -138 -142 0
-570 -130 -138 -143 0
-570 -130 -138 -144 0
-570 -131 -138 -143 0
-570 -131 -138 -144 0
-570 -132 -138 -144 0
-570 -130 -139 -142 0
-570 -130 -139 -143 0
-570 -130 -139 -144 0
-570 -131 -139 -143 0
-570 -131 -139 -144 0
-570 -132 -139 -144 0
-570 -130 -140 -142 0
-570 -130 -140 -143 0
-570 -130 -140 -144 0
-570 -131 -140 -143 0
-570 -131 -140 -144 0
-570 -132 -140 -144 0
-570 -130 -148 -152 0
-570 -130 -148 -153 0
-570 -130 -148 -154 0
-570 -131 -148 -153 0
-570 -131 -148 -154 0
-570 -132 -148 -154 0
-570 -130 -149 -152 0
-570 -130 -149 -153 0
-570 -130 -149 -154 0
-570 -131 -149 -153 0
-570 -131 -149 -154 0
-570 -132 -149 -154 0
-570 -130 -150 -152 0
-570 -130 -150 -153 0
-570 -130 -150 -154 0
-570 -131 -150 -153 0
-570 -131 -150 -154 0
-570 -132 -150 -154 0
-570 200 0
-570 -130 202 0
-570 -131 203 0
-570 -132 204 0
-570 -175 0
-571 164 0
-571 -144 0
-571 -156 -141 -161 0
-571 -156 -142 -162 0
-571 -156 -143 -163 0
-571 -138 0
-571 -139 0
-571 -140 0
-571 -141 -124 -131 0
-571 -141 -124 -132 0
-571 -141 -124 -133 0
-571 -142 -124 -132 0
-571 -142 -124 -133 0
-571 -143 -124 -133 0
-571 -141 -125 -131 0
-571 -141 -125 -132 0
-571 -141 -125 -133 0
-571 -142 -125 -132 0
-571 -142 -125 -133 0
-571 -143 -125 -133 0
-571 -141 -126 -131 0
-571 -141 -126 -132 0
-571 -141 -126 -133 0
-571 -142 -126 -132 0
-571 -142 -126 -133 0
-571 -143 -126 -133 0
-571 -141 -146 -152 0
-571 -141 -146 -153 0
-571 -141 -146 -154 0
-571 -142 -146 -153 0
-571 -142 -146 -154 0
-571 -143 -146 -154 0
-571 -141 -147 -152 0
-571 -141 -147 -153 0
-571 -141 -147 -154 0
-571 -142 -147 -153 0
-571 -142 -147 -154 0
-571 -143 -147 -154 0
-571 -141 -148 -152 0
-571 -141 -148 -153 0
-571 -141 -148 -154 0
-571 -142 -148 -153 0
-571 -142 -148 -154 0
-571 -143 -148 -154 0
-571 197 0
-571 -141 202 0
-571 -142 203 0
-571 -143 204 0
-571 -186 0
-572 164 0
-572 -144 0
-572 -157 -141 -161 0
-572 -157 -142 -162 0
-572 -157 -143 -163 0
-572 -135 0
-572 -139 0
-572 -140 0
-572 -141 -125 -131 0
-572 -141 -125 -132 0
-572 -141 -125 -133 0
-572 -142 -125 -132 0
-572 -142 -125 -133 0
-572 -143 -125 -133 0
-572 -141 -126 -131 0
-572 -141 -126 -132 0
-572 -141 -126 -133 0
-572 -142 -126 -132 0
-572 -142 -126 -133 0
-572 -143 -126 -133 0
-572 -141 -127 -131 0
-572 -141 -127 -132 0
-572 -141 -127 -133 0
-572 -142 -127 -132 0
-572 -142 -127 -133 0
-572 -143 -127 -133 0
-572 -141 -146 -152 0
-572 -141 -146 -153 0
-572 -141 -146 -154 0
-572 -142 -146 -153 0
-572 -142 -146 -154 0
-572 -143 -146 -154 0
-572 -141 -147 -152 0
-572 -141 -147 -153 0
-572 -141 -147 -154 0
-572 -142 -147 -153 0
-572 -142 -147 -154 0
-572 -143 -147 -154 0
-572 -141 -148 -152 0
-572 -141 -148 -153 0
-572 -141 -148 -154 0
-572 -142 -148 -153 0
-572 -142 -148 -154 0
-572 -143 -148 -154 0
-572 -141 -149 -152 0
-572 -141 -149 -153 0
-572 -141 -149 -154 0
-572 -142 -149 -153 0
-572 -142 -149 -154 0
-572 -143 -149 -154 0
-572 198 0
-572 -141 202 0
-572 -142 203 0
-572 -143 204 0
-572 -186 0
-573 164 0
-573 -144 0
-573 -158 -141 -161 0
-573 -158 -142 -162 0
-573 -158 -143 -163 0
-573 -135 0
-573 -136 0
-573 -140 0
-573 -141 -126 -131 0
-573 -141 -126 -132 0
-573 -141 -126 -133 0
-573 -142 -126 -132 0
-573 -142 -126 -133 0
-573 -143 -126 -133 0
-573 -141 -127 -131 0
-573 -141 -127 -132 0
-573 -141 -127 -133 0
-573 -142 -127 -132 0
-573 -142 -127 -133 0
-573 -143 -127 -133 0
-573 -141 -128 -131 0
-573 -141 -128 -132 0
-573 -141 -128 -133 0
-573 -142 -128 -132 0
-573 -142 -128 -133 0
-573 -143 -128 -133 0
-573 -141 -147 -152 0
-573 -141 -147 -153 0
-573 -141 -147 -154 0
-573 -142 -147 -153 0
-573 -142 -147 -154 0
-573 -143 -147 -154 0
-573 -141 -148 -152 0
-573 -141 -148 -153 0
-573 -141 -148 -154 0
-573 -142 -148 -153 0
-573 -142 -148 -154 0
-573 -143 -148 -154 0
-573 -141 -149 -152 0
-573 -141 -149 -153 0
-573 -141 -149 -154 0
-573 -142 -149 -153 0
-573 -142 -149 -154 0
-573 -143 -149 -154 0
-573 -141 -150 -152 0
-573 -141 -150 -153 0
-573 -141 -150 -154 0
-573 -142 -150 -153 0
-573 -142 -150 -154 0
-573 -143 -150 -154 0
-573 199 0
-573 -141 202 0
-573 -142 203 0
-573 -143 204 0
-573 -186 0
-574 164 0
-574 -144 0
-574 -159 -141 -161 0
-574 -159 -142 -162 0
-574 -159 -143 -163 0
-574 -135 0
-574 -136 0
-574 -137 0
-574 -141 -127 -131 0
-574 -141 -127 -132 0
-574 -141 -127 -133 0
-574 -142 -127 -132 0
-574 -142 -127 -133 0
-574 -143 -127 -133 0
-574 -141 -128 -131 0
-574 -141 -128 -132 0
-574 -141 -128 -133 0
-574 -142 -128 -132 0
-574 -142 -128 -133 0
-574 -143 -128 -133 0
-574 -141 -129 -131 0
-574 -141 -129 -132 0
-574 -141 -129 -133 0
-574 -142 -129 -132 0
-574 -142 -129 -133 0
-574 -143 -129 -133 0
-574 -141 -148 -152 0
-574 -141 -148 -153 0
-574 -141 -148 -154 0
-574 -142 -148 -153 0
-574 -142 -148 -154 0
-574 -143 -148 -154 0
-574 -141 -149 -152 0
-574 -141 -149 -153 0
-574 -141 -149 -154 0
-574 -142 -149 -153 0
-574 -142 -149 -154 0
-574 -143 -149 -154 0
-574 -141 -150 -152 0
-574 -141 -150 -153 0
-574 -141 -150 -154 0
-574 -142 -150 -153 0
-574 -142 -150 -154 0
-574 -143 -150 -154 0
-574 200 0
-574 -141 202 0
-574 -142 203 0
-574 -143 204 0
-574 -186 0
-575 164 0
-575 -154 0
-575 -156 -151 -161 0
-575 -156 -152 -162 0
-575 -156 -153 -163 0
-575 -149 0
-575 -150 0
-575 -151 -124 -131 0
-575 -151 -124 -132 0
-575 -151 -124 -133 0
-575 -152 -124 -132 0
-575 -152 -124 -133 0
-575 -153 -124 -133 0
-575 -151 -125 -131 0
-575 -151 -125 -132 0
-575 -151 -125 -133 0
-575 -152 -125 -132 0
-575 -152 -125 -133 0
-575 -153 -125 -133 0
-575 -151 -126 -131 0
-575 -151 -126 -132 0
-575 -151 -126 -133 0
-575 -152 -126 -132 0
-575 -152 -126 -133 0
-575 -153 -126 -133 0
-575 -151 -135 -142 0
-575 -151 -135 -143 0
-575 -151 -135 -144 0
-575 -152 -135 -143 0
-575 -152 -135 -144 0
-575 -153 -135 -144 0
-575 -151 -136 -142 0
-575 -151 -136 -143 0
-575 -151 -136 -144 0
-575 -152 -136 -143 0
-575 -152 -136 -144 0
-575 -153 -136 -144 0
-575 -151 -137 -142 0
-575 -151 -137 -143 0
-575 -151 -137 -144 0
-575 -152 -137 -143 0
-575 -152 -137 -144 0
-575 -153 -137 -144 0
-575 197 0
-575 -151 202 0
-575 -152 203 0
-575 -153 204 0
-575 -196 0
-576 164 0
-576 -154 0
-576 -157 -151 -161 0
-576 -157 -152 -162 0
-576 -157 -153 -163 0
-576 -150 0
-576 -151 -125 -131 0
-576 -151 -125 -132 0
-576 -151 -125 -133 0
-576 -152 -125 -132 0
-576 -152 -125 -133 0
-576 -153 -125 -133 0
-576 -151 -126 -131 0
-576 -151 -126 -132 0
-576 -151 -126 -133 0
-576 -152 -126 -132 0
-576 -152 -126 -133 0
-576 -153 -126 -133 0
-576 -151 -127 -131 0
-576 -151 -127 -132 0
-576 -151 -127 -133 0
-576 -152 -127 -132 0
-576 -152 -127 -133 0
-576 -153 -127 -133 0
-576 -151 -136 -142 0
-576 -151 -136 -143 0
-576 -151 -136 -144 0
-576 -152 -136 -143 0
-576 -152 -136 -144 0
-576 -153 -136 -144 0
-576 -151 -137 -142 0
-576 -151 -137 -143 0
-576 -151 -137 -144 0
-576 -152 -137 -143 0
-576 -152 -137 -144 0
-576 -153 -137 -144 0
-576 -151 -138 -142 0
-576 -151 -138 -143 0
-576 -151 -138 -144 0
-576 -152 -138 -143 0
-576 -152 -138 -144 0
-576 -153 -138 -144 0
-576 198 0
-576 -151 202 0
-576 -152 203 0
-576 -153 204 0
-576 -196 0
-577 164 0
-577 -154 0
-577 -158 -151 -161 0
-577 -158 -152 -162 0
-577 -158 -153 -163 0
-577 -146 0
-577 -151 -126 -131 0
-577 -151 -126 -132 0
-577 -151 -126 -133 0
-577 -152 -126 -132 0
-577 -152 -126 -133 0
-577 -153 -126 -133 0
-577 -151 -127 -131 0
-577 -151 -127 -132 0
-577 -151 -127 -133 0
-577 -152 -127 -132 0
-577 -152 -127 -133 0
-577 -153 -127 -133 0
-577 -151 -128 -131 0
-577 -151 -128 -132 0
-577 -151 -128 -133 0
-577 -152 -128 -132 0
-577 -152 -128 -133 0
-577 -153 -128 -133 0
-577 -151 -137 -142 0
-577 -151 -137 -143 0
-577 -151 -137 -144 0
-577 -152 -137 -143 0
-577 -152 -137 -144 0
-577 -153 -137 -144 0
-577 -151 -138 -142 0
-577 -151 -138 -143 0
-577 -151 -138 -144 0
-577 -152 -138 -143 0
-577 -152 -138 -144 0
-577 -153 -138 -144 0
-577 -151 -139 -142 0
-577 -151 -139 -143 0
-577 -151 -139 -144 0
-577 -152 -139 -143 0
-577 -152 -139 -144 0
-577 -153 -139 -144 0
-577 199 0
-577 -151 202 0
-577 -152 203 0
-577 -153 204 0
-577 -196 0
-578 164 0
-578 -154 0
-578 -159 -151 -161 0
-578 -159 -152 -162 0
-578 -159 -153 -163 0
-578 -146 0
-578 -147 0
-578 -151 -127 -131 0
-578 -151 -127 -132 0
-578 -151 -127 -133 0
-578 -152 -127 -132 0
-578 -152 -127 -133 0
-578 -153 -127 -133 0
-578 -151 -128 -131 0
-578 -151 -128 -132 0
-578 -151 -128 -133 0
-578 -152 -128 -132 0
-578 -152 -128 -133 0
-578 -153 -128 -133 0
-578 -151 -129 -131 0
-578 -151 -129 -132 0
-578 -151 -129 -133 0
-578 -152 -129 -132 0
-578 -152 -129 -133 0
-578 -153 -129 -133 0
-578 -151 -138 -142 0
-578 -151 -138 -143 0
-578 -151 -138 -144 0
-578 -152 -138 -143 0
-578 -152 -138 -144 0
-578 -153 -138 -144 0
-578 -151 -139 -142 0
-578 -151 -139 -143 0
-578 -151 -139 -144 0
-578 -152 -139 -143 0
-578 -152 -139 -144 0
-578 -153 -139 -144 0
-578 -151 -140 -142 0
-578 -151 -140 -143 0
-578 -151 -140 -144 0
-578 -152 -140 -143 0
-578 -152 -140 -144 0
-578 -153 -140 -144 0
-578 200 0
-578 -151 202 0
-578 -152 203 0
-578 -153 204 0
-578 -196 0
-579 164 0
-579 -156 -160 0
-579 -124 -130 0
-579 -124 -131 0
-579 -124 -132 0
-579 -124 -133 0
-579 -125 -130 0
-579 -125 -131 0
-579 -125 -132 0
-579 -125 -133 0
-579 -126 -130 0
-579 -126 -131 0
-579 -126 -132 0
-579 -126 -133 0
-579 -135 -141 0
-579 -135 -142 0
-579 -135 -143 0
-579 -135 -144 0
-579 -136 -141 0
-579 -136 -142 0
-579 -136 -143 0
-579 -136 -144 0
-579 -137 -141 0
-579 -137 -142 0
-579 -137 -143 0
-579 -137 -144 0
-579 -146 -151 0
-579 -146 -152 0
-579 -146 -153 0
-579 -146 -154 0
-579 -147 -151 0
-579 -147 -152 0
-579 -147 -153 0
-579 -147 -154 0
-579 -148 -151 0
-579 -148 -152 0
-579 -148 -153 0
-579 -148 -154 0
-579 197 0
-579 201 0
-580 164 0
-580 -157 -160 0
-580 -125 -130 0
-580 -125 -131 0
-580 -125 -132 0
-580 -125 -133 0
-580 -126 -130 0
-580 -126 -131 0
-580 -126 -132 0
-580 -126 -133 0
-580 -127 -130 0
-580 -127 -131 0
-580 -127 -132 0
-580 -127 -133 0
-580 -136 -141 0
-580 -136 -142 0
-580 -136 -143 0
-580 -136 -144 0
-580 -137 -141 0
-580 -137 -142 0
-580 -137 -143 0
-580 -137 -144 0
-580 -138 -141 0
-580 -138 -142 0
-580 -138 -143 0
-580 -138 -144 0
-580 -146 -151 0
-580 -146 -152 0
-580 -146 -153 0
-580 -146 -154 0
-580 -147 -151 0
-580 -147 -152 0
-580 -147 -153 0
-580 -147 -154 0
-580 -148 -151 0
-580 -148 -152 0
-580 -148 -153 0
-580 -148 -154 0
-580 -149 -151 0
-580 -149 -152 0
-580 -149 -153 0
-580 -149 -154 0
-580 198 0
-580 201 0
-581 164 0
-581 -158 -160 0
-581 -126 -130 0
-581 -126 -131 0
-581 -126 -132 0
-581 -126 -133 0
-581 -127 -130 0
-581 -127 -131 0
-581 -127 -132 0
-581 -127 -133 0
-581 -128 -130 0
-581 -128 -131 0
-581 -128 -132 0
-581 -128 -133 0
-581 -137 -141 0
-581 -137 -142 0
-581 -137 -143 0
-581 -137 -144 0
-581 -138 -141 0
-581 -138 -142 0
-581 -138 -143 0
-581 -138 -144 0
-581 -139 -141 0
-581 -139 -142 0
-581 -139 -143 0
-581 -139 -144 0
-581 -147 -151 0
-581 -147 -152 0
-581 -147 -153 0
-581 -147 -154 0
-581 -148 -151 0
-581 -148 -152 0
-581 -148 -153 0
-581 -148 -154 0
-581 -149 -151 0
-581 -149 -152 0
-581 -149 -153 0
-581 -149 -154 0
-581 -150 -151 0
-581 -150 -152 0
-581 -150 -153 0
-581 -150 -154 0
-581 199 0
-581 201 0
-582 164 0
-582 -159 -160 0
-582 -127 -130 0
-582 -127 -131 0
-582 -127 -132 0
-582 -127 -133 0
-582 -128 -130 0
-582 -128 -131 0
-582 -128 -132 0
-582 -128 -133 0
-582 -129 -130 0
-582 -129 -131 0
-582 -129 -132 0
-582 -129 -133 0
-582 -138 -141 0
-582 -138 -142 0
-582 -138 -143 0
-582 -138 -144 0
-582 -139 -141 0
-582 -139 -142 0
-582 -139 -143 0
-582 -139 -144 0
-582 -140 -141 0
-582 -140 -142 0
-582 -140 -143 0
-582 -140 -144 0
-582 -148 -151 0
-582 -148 -152 0
-582 -148 -153 0
-582 -148 -154 0
-582 -149 -151 0
-582 -149 -152 0
-582 -149 -153 0
-582 -149 -154 0
-582 -150 -151 0
-582 -150 -152 0
-582 -150 -153 0
-582 -150 -154 0
-582 200 0
-582 201 0
-583 175 0
-583 -185 0
-583 -165 -182 -172 0
-583 -165 -183 -173 0
-583 -165 -184 -174 0
-583 -177 0
-583 -178 0
-583 -179 0
-583 -180 0
-583 -181 0
-583 -182 -187 -193 0
-583 -182 -187 -194 0
-583 -182 -187 -195 0
-583 -183 -187 -194 0
-583 -183 -187 -195 0
-583 -184 -187 -195 0
-583 -182 -197 -202 0
-583 -182 -197 -203 0
-583 -182 -197 -204 0
-583 -183 -197 -203 0
-583 -183 -197 -204 0
-583 -184 -197 -204 0
-583 206 0
-583 -182 213 0
-583 -183 214 0
-583 -184 215 0
-583 -227 0
-584 175 0
-584 -185 0
-584 -166 -182 -172 0
-584 -166 -183 -173 0
-584 -166 -184 -174 0
-584 -176 0
-584 -178 0
-584 -179 0
-584 -180 0
-584 -181 0
-584 -182 -187 -193 0
-584 -182 -187 -194 0
-584 -182 -187 -195 0
-584 -183 -187 -194 0
-584 -183 -187 -195 0
-584 -184 -187 -195 0
-584 -182 -188 -193 0
-584 -182 -188 -194 0
-584 -182 -188 -195 0
-584 -183 -188 -194 0
-584 -183 -188 -195 0
-584 -184 -188 -195 0
-584 -182 -197 -202 0
-584 -182 -197 -203 0
-584 -182 -197 -204 0
-584 -183 -197 -203 0
-584 -183 -197 -204 0
-584 -184 -197 -204 0
-584 -182 -198 -202 0
-584 -182 -198 -203 0
-584 -182 -198 -204 0
-584 -183 -198 -203 0
-584 -183 -198 -204 0
-584 -184 -198 -204 0
-584 207 0
-584 -182 213 0
-584 -183 214 0
-584 -184 215 0
-584 -227 0
-585 175 0
-585 -185 0
-585 -167 -182 -172 0
-585 -167 -183 -173 0
-585 -167 -184 -174 0
-585 -176 0
-585 -177 0
-585 -179 0
-585 -180 0
-585 -181 0
-585 -182 -188 -193 0
-585 -182 -188 -194 0
-585 -182 -188 -195 0
-585 -183 -188 -194 0
-585 -183 -188 -195 0
-585 -184 -188 -195 0
-585 -182 -189 -193 0
-585 -182 -189 -194 0
-585 -182 -189 -195 0
-585 -183 -189 -194 0
-585 -183 -189 -195 0
-585 -184 -189 -195 0
-585 -182 -197 -202 0
-585 -182 -197 -203 0
-585 -182 -197 -204 0
-585 -183 -197 -203 0
-585 -183 -197 -204 0
-585 -184 -197 -204 0
-585 -182 -198 -202 0
-585 -182 -198 -203 0
-585 -182 -198 -204 0
-585 -183 -198 -203 0
-585 -183 -198 -204 0
-585 -184 -198 -204 0
-585 -182 -199 -202 0
-585 -182 -199 -203 0
-585 -182 -199 -204 0
-585 -183 -199 -203 0
-585 -183 -199 -204 0
-585 -184 -199 -204 0
-585 208 0
-585 -182 213 0
-585 -183 214 0
-585 -184 215 0
-585 -227 0
-586 175 0
-586 -185 0
-586 -168 -182 -172 0
-586 -168 -183 -173 0
-586 -168 -184 -174 0
-586 -176 0
-586 -177 0
-586 -178 0
-586 -180 0
-586 -181 0
-586 -182 -189 -193 0
-586 -182 -189 -194 0
-586 -182 -189 -195 0
-586 -183 -189 -194 0
-586 -183 -189 -195 0
-586 -184 -189 -195 0
-586 -182 -190 -193 0
-586 -182 -190 -194 0
-586 -182 -190 -195 0
-586 -183 -190 -194 0
-586 -183 -190 -195 0
-586 -184 -190 -195 0
-586 -182 -198 -202 0
-586 -182 -198 -203 0
-586 -182 -198 -204 0
-586 -183 -198 -203 0
-586 -183 -198 -204 0
-586 -184 -198 -204 0
-586 -182 -199 -202 0
-586 -182 -199 -203 0
-586 -182 -199 -204 0
-586 -183 -199 -203 0
-586 -183 -199 -204 0
-586 -184 -199 -204 0
-586 -182 -200 -202 0
-586 -182 -200 -203 0
-586 -182 -200 -204 0
-586 -183 -200 -203 0
-586 -183 -200 -204 0
-586 -184 -200 -204 0
-586 209 0
-586 -182 213 0
-586 -183 214 0
-586 -184 215 0
-586 -227 0
-587 175 0
-587 -185 0
-587 -169 -182 -172 0
-587 -169 -183 -173 0
-587 -169 -184 -174 0
-587 -176 0
-587 -177 0
-587 -178 0
-587 -179 0
-587 -181 0
-587 -182 -190 -193 0
-587 -182 -190 -194 0
-587 -182 -190 -195 0
-587 -183 -190 -194 0
-587 -183 -190 -195 0
-587 -184 -190 -195 0
-587 -182 -191 -193 0
-587 -182 -191 -194 0
-587 -182 -191 -195 0
-587 -183 -191 -194 0
-587 -183 -191 -195 0
-587 -184 -191 -195 0
-587 -182 -199 -202 0
-587 -182 -199 -203 0
-587 -182 -199 -204 0
-587 -183 -199 -203 0
-587 -183 -199 -204 0
-587 -184 -199 -204 0
-587 -182 -200 -202 0
-587 -182 -200 -203 0
-587 -182 -200 -204 0
-587 -183 -200 -203 0
-587 -183 -200 -204 0
-587 -184 -200 -204 0
-587 210 0
-587 -182 213 0
-587 -183 214 0
-587 -184 215 0
-587 -227 0
-588 175 0
-588 -185 0
-588 -170 -182 -172 0
-588 -170 -183 -173 0
-588 -170 -184 -174 0
-588 -176 0
-588 -177 0
-588 -178 0
-588 -179 0
-588 -180 0
-588 -182 -191 -193 0
-588 -182 -191 -194 0
-588 -182 -191 -195 0
-588 -183 -191 -194 0
-588 -183 -191 -195 0
-588 -184 -191 -195 0
-588 -182 -200 -202 0
-588 -182 -200 -203 0
-588 -182 -200 -204 0
-588 -183 -200 -203 0
-588 -183 -200 -204 0
-588 -184 -200 -204 0
-588 211 0
-588 -182 213 0
-588 -183 214 0
-588 -184 215 0
-588 -227 0
-589 175 0
-589 -195 0
-589 -165 -192 -172 0
-589 -165 -193 -173 0
-589 -165 -194 -174 0
-589 -188 0
-589 -189 0
-589 -190 0
-589 -191 0
-589 -192 -176 -183 0
-589 -192 -176 -184 0
-589 -192 -176 -185 0
-589 -193 -176 -184 0
-589 -193 -176 -185 0
-589 -194 -176 -185 0
-589 -192 -197 -202 0
-589 -192 -197 -203 0
-589 -192 -197 -204 0
-589 -193 -197 -203 0
-589 -193 -197 -204 0
-589 -194 -197 -204 0
-589 206 0
-589 -192 213 0
-589 -193 214 0
-589 -194 215 0
-589 -237 0
-590 175 0
-590 -195 0
-590 -166 -192 -172 0
-590 -166 -193 -173 0
-590 -166 -194 -174 0
-590 -189 0
-590 -190 0
-590 -191 0
-590 -192 -177 -183 0
-590 -192 -177 -184 0
-590 -192 -177 -185 0
-590 -193 -177 -184 0
-590 -193 -177 -185 0
-590 -194 -177 -185 0
-590 -192 -197 -202 0
-590 -192 -197 -203 0
-590 -192 -197 -204 0
-590 -193 -197 -203 0
-590 -193 -197 -204 0
-590 -194 -197 -204 0
-590 -192 -198 -202 0
-590 -192 -198 -203 0
-590 -192 -198 -204 0
-590 -193 -198 -203 0
-590 -193 -198 -204 0
-590 -194 -198 -204 0
-590 207 0
-590 -192 213 0
-590 -193 214 0
-590 -194 215 0
-590 -237 0
-591 175 0
-591 -195 0
-591 -167 -192 -172 0
-591 -167 -193 -173 0
-591 -167 -194 -174 0
-591 -187 0
-591 -190 0
-591 -191 0
-591 -192 -178 -183 0
-591 -192 -178 -184 0
-591 -192 -178 -185 0
-591 -193 -178 -184 0
-591 -193 -178 -185 0
-591 -194 -178 -185 0
-591 -192 -197 -202 0
-591 -192 -197 -203 0
-591 -192 -197 -204 0
-591 -193 -197 -203 0
-591 -193 -197 -204 0
-591 -194 -197 -204 0
-591 -192 -198 -202 0
-591 -192 -198 -203 0
-591 -192 -198 -204 0
-591 -193 -198 -203 0
-591 -193 -198 -204 0
-591 -194 -198 -204 0
-591 -192 -199 -202 0
-591 -192 -199 -203 0
-591 -192 -199 -204 0
-591 -193 -199 -203 0
-591 -193 -199 -204 0
-591 -194 -199 -204 0
-591 208 0
-591 -192 213 0
-591 -193 214 0
-591 -194 215 0
-591 -237 0
-592 175 0
-592 -195 0
-592 -168 -192 -172 0
-592 -168 -193 -173 0
-592 -168 -194 -174 0
-592 -187 0
-592 -188 0
-592 -191 0
-592 -192 -179 -183 0
-592 -192 -179 -184 0
-592 -192 -179 -185 0
-592 -193 -179 -184 0
-592 -193 -179 -185 0
-592 -194 -179 -185 0
-592 -192 -198 -202 0
-592 -192 -198 -203 0
-592 -192 -198 -204 0
-592 -193 -198 -203 0
-592 -193 -198 -204 0
-592 -194 -198 -204 0
-592 -192 -199 -202 0
-592 -192 -199 -203 0
-592 -192 -199 -204 0
-592 -193 -199 -203 0
-592 -193 -199 -204 0
-592 -194 -199 -204 0
-592 -192 -200 -202 0
-592 -192 -200 -203 0
-592 -192 -200 -204 0
-592 -193 -200 -203 0
-592 -193 -200 -204 0
-592 -194 -200 -204 0
-592 209 0
-592 -192 213 0
-592 -193 214 0
-592 -194 215 0
-592 -237 0
-593 175 0
-593 -195 0
-593 -169 -192 -172 0
-593 -169 -193 -173 0
-593 -169 -194 -174 0
-593 -187 0
-593 -188 0
-593 -189 0
-593 -192 -180 -183 0
-593 -192 -180 -184 0
-593 -192 -180 -185 0
-593 -193 -180 -184 0
-593 -193 -180 -185 0
-593 -194 -180 -185 0
-593 -192 -199 -202 0
-593 -192 -199 -203 0
-593 -192 -199 -204 0
-593 -193 -199 -203 0
-593 -193 -199 -204 0
-593 -194 -199 -204 0
-593 -192 -200 -202 0
-593 -192 -200 -203 0
-593 -192 -200 -204 0
-593 -193 -200 -203 0
-593 -193 -200 -204 0
-593 -194 -200 -204 0
-593 210 0
-593 -192 213 0
-593 -193 214 0
-593 -194 215 0
-593 -237 0
-594 175 0
-594 -195 0
-594 -170 -192 -172 0
-594 -170 -193 -173 0
-594 -170 -194 -174 0
-594 -187 0
-594 -188 0
-594 -189 0
-594 -190 0
-594 -192 -181 -183 0
-594 -192 -181 -184 0
-594 -192 -181 -185 0
-594 -193 -181 -184 0
-594 -193 -181 -185 0
-594 -194 -181 -185 0
-594 -192 -200 -202 0
-594 -192 -200 -203 0
-594 -192 -200 -204 0
-594 -193 -200 -203 0
-594 -193 -200 -204 0
-594 -194 -200 -204 0
-594 211 0
-594 -192 213 0
-594 -193 214 0
-594 -194 215 0
-594 -237 0
-595 175 0
-595 -204 0
-595 -165 -201 -172 0
-595 -165 -202 -173 0
-595 -165 -203 -174 0
-595 -198 0
-595 -199 0
-595 -200 0
-595 -201 -176 -183 0
-595 -201 -176 -184 0
-595 -201 -176 -185 0
-595 -202 -176 -184 0
-595 -202 -176 -185 0
-595 -203 -176 -185 0
-595 -201 -187 -193 0
-595 -201 -187 -194 0
-595 -201 -187 -195 0
-595 -202 -187 -194 0
-595 -202 -187 -195 0
-595 -203 -187 -195 0
-595 206 0
-595 -201 213 0
-595 -202 214 0
-595 -203 215 0
-595 -246 0
-596 175 0
-596 -204 0
-596 -166 -201 -172 0
-596 -166 -202 -173 0
-596 -166 -203 -174 0
-596 -199 0
-596 -200 0
-596 -201 -177 -183 0
-596 -201 -177 -184 0
-596 -201 -177 -185 0
-596 -202 -177 -184 0
-596 -202 -177 -185 0
-596 -203 -177 -185 0
-596 -201 -187 -193 0
-596 -201 -187 -194 0
-596 -201 -187 -195 0
-596 -202 -187 -194 0
-596 -202 -187 -195 0
-596 -203 -187 -195 0
-596 -201 -188 -193 0
-596 -201 -188 -194 0
-596 -201 -188 -195 0
-596 -202 -188 -194 0
-596 -202 -188 -195 0
-596 -203 -188 -195 0
-596 207 0
-596 -201 213 0
-596 -202 214 0
-596 -203 215 0
-596 -246 0
-597 175 0
-597 -204 0
-597 -167 -201 -172 0
-597 -167 -202 -173 0
-597 -167 -203 -174 0
-597 -200 0
-597 -201 -178 -183 0
-597 -201 -178 -184 0
-597 -201 -178 -185 0
-597 -202 -178 -184 0
-597 -202 -178 -185 0
-597 -203 -178 -185 0
-597 -201 -188 -193 0
-597 -201 -188 -194 0
-597 -201 -188 -195 0
-597 -202 -188 -194 0
-597 -202 -188 -195 0
-597 -203 -188 -195 0
-597 -201 -189 -193 0
-597 -201 -189 -194 0
-597 -201 -189 -195 0
-597 -202 -189 -194 0
-597 -202 -189 -195 0
-597 -203 -189 -195 0
-597 208 0
-597 -201 213 0
-597 -202 214 0
-597 -203 215 0
-597 -246 0
-598 175 0
-598 -204 0
-598 -168 -201 -172 0
-598 -168 -202 -173 0
-598 -168 -203 -174 0
-598 -197 0
-598 -201 -179 -183 0
-598 -201 -179 -184 0
-598 -201 -179 -185 0
-598 -202 -179 -184 0
-598 -202 -179 -185 0
-598 -203 -179 -185 0
-598 -201 -189 -193 0
-598 -201 -189 -194 0
-598 -201 -189 -195 0
-598 -202 -189 -194 0
-598 -202 -189 -195 0
-598 -203 -189 -195 0
-598 -201 -190 -193 0
-598 -201 -190 -194 0
-598 -201 -190 -195 0
-598 -202 -190 -194 0
-598 -202 -190 -195 0
-598 -203 -190 -195 0
-598 209 0
-598 -201 213 0
-598 -202 214 0
-598 -203 215 0
-598 -246 0
-599 175 0
-599 -204 0
-599 -169 -201 -172 0
-599 -169 -202 -173 0
-599 -169 -203 -174 0
-599 -197 0
-599 -198 0
-599 -201 -180 -183 0
-599 -201 -180 -184 0
-599 -201 -180 -185 0
-599 -202 -180 -184 0
-599 -202 -180 -185 0
-599 -203 -180 -185 0
-599 -201 -190 -193 0
-599 -201 -190 -194 0
-599 -201 -190 -195 0
-599 -202 -190 -194 0
-599 -202 -190 -195 0
-599 -203 -190 -195 0
-599 -201 -191 -193 0
-599 -201 -191 -194 0
-599 -201 -191 -195 0
-599 -202 -191 -194 0
-599 -202 -191 -195 0
-599 -203 -191 -195 0
-599 210 0
-599 -201 213 0
-599 -202 214 0
-599 -203 215 0
-599 -246 0
-600 175 0
-600 -204 0
-600 -170 -201 -172 0
-600 -170 -202 -173 0
-600 -170 -203 -174 0
-600 -197 0
-600 -198 0
-600 -199 0
-600 -201 -181 -183 0
-600 -201 -181 -184 0
-600 -201 -181 -185 0
-600 -202 -181 -184 0
-600 -202 -181 -185 0
-600 -203 -181 -185 0
-600 -201 -191 -193 0
-600 -201 -191 -194 0
-600 -201 -191 -195 0
-600 -202 -191 -194 0
-600 -202 -191 -195 0
-600 -203 -191 -195 0
-600 211 0
-600 -201 213 0
-600 -202 214 0
-600 -203 215 0
-600 -246 0
-601 175 0
-601 -165 -171 0
-601 -176 -182 0
-601 -176 -183 0
-601 -176 -184 0
-601 -176 -185 0
-601 -187 -192 0
-601 -187 -193 0
-601 -187 -194 0
-601 -187 -195 0
-601 -197 -201 0
-601 -197 -202 0
-601 -197 -203 0
-601 -197 -204 0
-601 206 0
-601 212 0
-602 175 0
-602 -166 -171 0
-602 -177 -182 0
-602 -177 -183 0
-602 -177 -184 0
-602 -177 -185 0
-602 -187 -192 0
-602 -187 -193 0
-602 -187 -194 0
-602 -187 -195 0
-602 -188 -192 0
-602 -188 -193 0
-602 -188 -194 0
-602 -188 -195 0
-602 -197 -201 0
-602 -197 -202 0
-602 -197 -203 0
-602 -197 -204 0
-602 -198 -201 0
-602 -198 -202 0
-602 -198 -203 0
-602 -198 -204 0
-602 207 0
-602 212 0
-603 175 0
-603 -167 -171 0
-603 -178 -182 0
-603 -178 -183 0
-603 -178 -184 0
-603 -178 -185 0
-603 -188 -192 0
-603 -188 -193 0
-603 -188 -194 0
-603 -188 -195 0
-603 -189 -192 0
-603 -189 -193 0
-603 -189 -194 0
-603 -189 -195 0
-603 -197 -201 0
-603 -197 -202 0
-603 -197 -203 0
-603 -197 -204 0
-603 -198 -201 0
-603 -198 -202 0
-603 -198 -203 0
-603 -198 -204 0
-603 -199 -201 0
-603 -199 -202 0
-603 -199 -203 0
-603 -199 -204 0
-603 208 0
-603 212 0
-604 175 0
-604 -168 -171 0
-604 -179 -182 0
-604 -179 -183 0
-604 -179 -184 0
-604 -179 -185 0
-604 -189 -192 0
-604 -189 -193 0
-604 -189 -194 0
-604 -189 -195 0
-604 -190 -192 0
-604 -190 -193 0
-604 -190 -194 0
-604 -190 -195 0
-604 -198 -201 0
-604 -198 -202 0
-604 -198 -203 0
-604 -198 -204 0
-604 -199 -201 0
-604 -199 -202 0
-604 -199 -203 0
-604 -199 -204 0
-604 -200 -201 0
-604 -200 -202 0
-604 -200 -203 0
-604 -200 -204 0
-604 209 0
-604 212 0
-605 175 0
-605 -169 -171 0
-605 -180 -182 0
-605 -180 -183 0
-605 -180 -184 0
-605 -180 -185 0
-605 -190 -192 0
-605 -190 -193 0
-605 -190 -194 0
-605 -190 -195 0
-605 -191 -192 0
-605 -191 -193 0
-605 -191 -194 0
-605 -191 -195 0
-605 -199 -201 0
-605 -199 -202 0
-605 -199 -203 0
-605 -199 -204 0
-605 -200 -201 0
-605 -200 -202 0
-605 -200 -203 0
-605 -200 -204 0
-605 210 0
-605 212 0
-606 175 0
-606 -170 -171 0
-606 -181 -182 0
-606 -181 -183 0
-606 -181 -184 0
-606 -181 -185 0
-606 -191 -192 0
-606 -191 -193 0
-606 -191 -194 0
-606 -191 -195 0
-606 -200 -201 0
-606 -200 -202 0
-606 -200 -203 0
-606 -200 -204 0
-606 211 0
-606 212 0
-607 186 0
-607 -174 0
-607 -176 -171 -183 0
-607 -176 -172 -184 0
-607 -176 -173 -185 0
-607 -166 0
-607 -167 0
-607 -168 0
-607 -169 0
-607 -170 0
-607 -171 -187 -193 0
-607 -171 -187 -194 0
-607 -171 -187 -195 0
-607 -172 -187 -194 0
-607 -172 -187 -195 0
-607 -173 -187 -195 0
-607 -171 -197 -202 0
-607 -171 -197 -203 0
-607 -171 -197 -204 0
-607 -172 -197 -203 0
-607 -172 -197 -204 0
-607 -173 -197 -204 0
-607 217 0
-607 -171 224 0
-607 -172 225 0
-607 -173 226 0
-607 -216 0
-608 186 0
-608 -174 0
-608 -177 -171 -183 0
-608 -177 -172 -184 0
-608 -177 -173 -185 0
-608 -165 0
-608 -167 0
-608 -168 0
-608 -169 0
-608 -170 0
-608 -171 -187 -193 0
-608 -171 -187 -194 0
-608 -171 -187 -195 0
-608 -172 -187 -194 0
-608 -172 -187 -195 0
-608 -173 -187 -195 0
-608 -171 -188 -193 0
-608 -171 -188 -194 0
-608 -171 -188 -195 0
-608 -172 -188 -194 0
-608 -172 -188 -195 0
-608 -173 -188 -195 0
-608 -171 -197 -202 0
-608 -171 -197 -203 0
-608 -171 -197 -204 0
-608 -172 -197 -203 0
-608 -172 -197 -204 0
-608 -173 -197 -204 0
-608 -171 -198 -202 0
-608 -171 -198 -203 0
-608 -171 -198 -204 0
-608 -172 -198 -203 0
-608 -172 -198 -204 0
-608 -173 -198 -204 0
-608 218 0
-608 -171 224 0
-608 -172 225 0
-608 -173 226 0
-608 -216 0
-609 186 0
-609 -174 0
-609 -178 -171 -183 0
-609 -178 -172 -184 0
-609 -178 -173 -185 0
-609 -165 0
-609 -166 0
-609 -168 0
-609 -169 0
-609 -170 0
-609 -171 -188 -193 0
-609 -171 -188 -194 0
-609 -171 -188 -195 0
-609 -172 -188 -194 0
-609 -172 -188 -195 0
-609 -173 -188 -195 0
-609 -171 -189 -193 0
-609 -171 -189 -194 0
-609 -171 -189 -195 0
-609 -172 -189 -194 0
-609 -172 -189 -195 0
-609 -173 -189 -195 0
-609 -171 -197 -202 0
-609 -171 -197 -203 0
-609 -171 -197 -204 0
-609 -172 -197 -203 0
-609 -172 -197 -204 0
-609 -173 -197 -204 0
-609 -171 -198 -202 0
-609 -171 -198 -203 0
-609 -171 -198 -204 0
-609 -172 -198 -203 0
-609 -172 -198 -204 0
-609 -173 -198 -204 0
-609 -171 -199 -202 0
-609 -171 -199 -203 0
-609 -171 -199 -204 0
-609 -172 -199 -203 0
-609 -172 -199 -204 0
-609 -173 -199 -204 0
-609 219 0
-609 -171 224 0
-609 -172 225 0
-609 -173 226 0
-609 -216 0
-610 186 0
-610 -174 0
-610 -179 -171 -183 0
-610 -179 -172 -184 0
-610 -179 -173 -185 0
-610 -165 0
-610 -166 0
-610 -167 0
-610 -169 0
-610 -170 0
-610 -171 -189 -193 0
-610 -171 -189 -194 0
-610 -171 -189 -195 0
-610 -172 -189 -194 0
-610 -172 -189 -195 0
-610 -173 -189 -195 0
-610 -171 -190 -193 0
-610 -171 -190 -194 0
-610 -171 -190 -195 0
-610 -172 -190 -194 0
-610 -172 -190 -195 0
-610 -173 -190 -195 0
-610 -171 -198 -202 0
-610 -171 -198 -203 0
-610 -171 -198 -204 0
-610 -172 -198 -203 0
-610 -172 -198 -204 0
-610 -173 -198 -204 0
-610 -171 -199 -202 0
-610 -171 -199 -203 0
-610 -171 -199 -204 0
-610 -172 -199 -203 0
-610 -172 -199 -204 0
-610 -173 -199 -204 0
-610 -171 -200 -202 0
-610 -171 -200 -203 0
-610 -171 -200 -204 0
-610 -172 -200 -203 0
-610 -172 -200 -204 0
-610 -173 -200 -204 0
-610 220 0
-610 -171 224 0
-610 -172 225 0
-610 -173 226 0
-610 -216 0
-611 186 0
-611 -174 0
-611 -180 -171 -183 0
-611 -180 -172 -184 0
-611 -180 -173 -185 0
-611 -165 0
-611 -166 0
-611 -167 0
-611 -168 0
-611 -170 0
-611 -171 -190 -193 0
-611 -171 -190 -194 0
-611 -171 -190 -195 0
-611 -172 -190 -194 0
-611 -172 -190 -195 0
-611 -173 -190 -195 0
-611 -171 -191 -193 0
-611 -171 -191 -194 0
-611 -171 -191 -195 0
-611 -172 -191 -194 0
-611 -172 -191 -195 0
-611 -173 -191 -195 0
-611 -171 -199 -202 0
-611 -171 -199 -203 0
-611 -171 -199 -204 0
-611 -172 -199 -203 0
-611 -172 -199 -204 0
-611 -173 -199 -204 0
-611 -171 -200 -202 0
-611 -171 -200 -203 0
-611 -171 -200 -204 0
-611 -172 -200 -203 0
-611 -172 -200 -204 0
-611 -173 -200 -204 0
-611 221 0
-611 -171 224 0
-611 -172 225 0
-611 -173 226 0
-611 -216 0
-612 186 0
-612 -174 0
-612 -181 -171 -183 0
-612 -181 -172 -184 0
-612 -181 -173 -185 0
-612 -165 0
-612 -166 0
-612 -167 0
-612 -168 0
-612 -169 0
-612 -171 -191 -193 0
-612 -171 -191 -194 0
-612 -171 -191 -195 0
-612 -172 -191 -194 0
-612 -172 -191 -195 0
-612 -173 -191 -195 0
-612 -171 -200 -202 0
-612 -171 -200 -203 0
-612 -171 -200 -204 0
-612 -172 -200 -203 0
-612 -172 -200 -204 0
-612 -173 -200 -204 0
-612 222 0
-612 -171 224 0
-612 -172 225 0
-612 -173 226 0
-612 -216 0
-613 186 0
-613 -195 0
-613 -176 -192 -183 0
-613 -176 -193 -184 0
-613 -176 -194 -185 0
-613 -188 0
-613 -189 0
-613 -190 0
-613 -191 0
-613 -192 -165 -172 0
-613 -192 -165 -173 0
-613 -192 -165 -174 0
-613 -193 -165 -173 0
-613 -193 -165 -174 0
-613 -194 -165 -174 0
-613 -192 -197 -202 0
-613 -192 -197 -203 0
-613 -192 -197 -204 0
-613 -193 -197 -203 0
-613 -193 -197 -204 0
-613 -194 -197 -204 0
-613 217 0
-613 -192 224 0
-613 -193 225 0
-613 -194 226 0
-613 -237 0
-614 186 0
-614 -195 0
-614 -177 -192 -183 0
-614 -177 -193 -184 0
-614 -177 -194 -185 0
-614 -189 0
-614 -190 0
-614 -191 0
-614 -192 -166 -172 0
-614 -192 -166 -173 0
-614 -192 -166 -174 0
-614 -193 -166 -173 0
-614 -193 -166 -174 0
-614 -194 -166 -174 0
-614 -192 -197 -202 0
-614 -192 -197 -203 0
-614 -192 -197 -204 0
-614 -193 -197 -203 0
-614 -193 -197 -204 0
-614 -194 -197 -204 0
-614 -192 -198 -202 0
-614 -192 -198 -203 0
-614 -192 -198 -204 0
-614 -193 -198 -203 0
-614 -193 -198 -204 0
-614 -194 -198 -204 0
-614 218 0
-614 -192 224 0
-614 -193 225 0
-614 -194 226 0
-614 -237 0
-615 186 0
-615 -195 0
-615 -178 -192 -183 0
-615 -178 -193 -184 0
-615 -178 -194 -185 0
-615 -187 0
-615 -190 0
-615 -191 0
-615 -192 -167 -172 0
-615 -192 -167 -173 0
-615 -192 -167 -174 0
-615 -193 -167 -173 0
-615 -193 -167 -174 0
-615 -194 -167 -174 0
-615 -192 -197 -202 0
-615 -192 -197 -203 0
-615 -192 -197 -204 0
-615 -193 -197 -203 0
-615 -193 -197 -204 0
-615 -194 -197 -204 0
-615 -192 -198 -202 0
-615 -192 -198 -203 0
-615 -192 -198 -204 0
-615 -193 -198 -203 0
-615 -193 -198 -204 0
-615 -194 -198 -204 0
-615 -192 -199 -202 0
-615 -192 -199 -203 0
-615 -192 -199 -204 0
-615 -193 -199 -203 0
-615 -193 -199 -204 0
-615 -194 -199 -204 0
-615 219 0
-615 -192 224 0
-615 -193 225 0
-615 -194 226 0
-615 -237 0
-616 186 0
-616 -195 0
-616 -179 -192 -183 0
-616 -179 -193 -184 0
-616 -179 -194 -185 0
-616 -187 0
-616 -188 0
-616 -191 0
-616 -192 -168 -172 0
-616 -192 -168 -173 0
-616 -192 -168 -174 0
-616 -193 -168 -173 0
-616 -193 -168 -174 0
-616 -194 -168 -174 0
-616 -192 -198 -202 0
-616 -192 -198 -203 0
-616 -192 -198 -204 0
-616 -193 -198 -203 0
-616 -193 -198 -204 0
-616 -194 -198 -204 0
-616 -192 -199 -202 0
-616 -192 -199 -203 0
-616 -192 -199 -204 0
-616 -193 -199 -203 0
-616 -193 -199 -204 0
-616 -194 -199 -204 0
-616 -192 -200 -202 0
-616 -192 -200 -203 0
-616 -192 -200 -204 0
-616 -193 -200 -203 0
-616 -193 -200 -204 0
-616 -194 -200 -204 0
-616 220 0
-616 -192 224 0
-616 -193 225 0
-616 -194 226 0
-616 -237 0
-617 186 0
-617 -195 0
-617 -180 -192 -183 0
-617 -180 -193 -184 0
-617 -180 -194 -185 0
-617 -187 0
-617 -188 0
-617 -189 0
-617 -192 -169 -172 0
-617 -192 -169 -173 0
-617 -192 -169 -174 0
-617 -193 -169 -173 0
-617 -193 -169 -174 0
-617 -194 -169 -174 0
-617 -192 -199 -202 0
-617 -192 -199 -203 0
-617 -192 -199 -204 0
-617 -193 -199 -203 0
-617 -193 -199 -204 0
-617 -194 -199 -204 0
-617 -192 -200 -202 0
-617 -192 -200 -203 0
-617 -192 -200 -204 0
-617 -193 -200 -203 0
-617 -193 -200 -204 0
-617 -194 -200 -204 0
-617 221 0
-617 -192 224 0
-617 -193 225 0
-617 -194 226 0
-617 -237 0
-618 186 0
-618 -195 0
-618 -181 -192 -183 0
-618 -181 -193 -184 0
-618 -181 -194 -185 0
-618 -187 0
-618 -188 0
-618 -189 0
-618 -190 0
-618 -192 -170 -172 0
-618 -192 -170 -173 0
-618 -192 -170 -174 0
-618 -193 -170 -173 0
-618 -193 -170 -174 0
-618 -194 -170 -174 0
-618 -192 -200 -202 0
-618 -192 -200 -203 0
-618 -192 -200 -204 0
-618 -193 -200 -203 0
-618 -193 -200 -204 0
-618 -194 -200 -204 0
-618 222 0
-618 -192 224 0
-618 -193 225 0
-618 -194 226 0
-618 -237 0
-619 186 0
-619 -204 0
-619 -176 -201 -183 0
-619 -176 -202 -184 0
-619 -176 -203 -185 0
-619 -198 0
-619 -199 0
-619 -200 0
-619 -201 -165 -172 0
-619 -201 -165 -173 0
-619 -201 -165 -174 0
-619 -202 -165 -173 0
-619 -202 -165 -174 0
-619 -203 -165 -174 0
-619 -201 -187 -193 0
-619 -201 -187 -194 0
-619 -201 -187 -195 0
-619 -202 -187 -194 0
-619 -202 -187 -195 0
-619 -203 -187 -195 0
-619 217 0
-619 -201 224 0
-619 -202 225 0
-619 -203 226 0
-619 -246 0
-620 186 0
-620 -204 0
-620 -177 -201 -183 0
-620 -177 -202 -184 0
-620 -177 -203 -185 0
-620 -199 0
-620 -200 0
-620 -201 -166 -172 0
-620 -201 -166 -173 0
-620 -201 -166 -174 0
-620 -202 -166 -173 0
-620 -202 -166 -174 0
-620 -203 -166 -174 0
-620 -201 -187 -193 0
-620 -201 -187 -194 0
-620 -201 -187 -195 0
-620 -202 -187 -194 0
-620 -202 -187 -195 0
-620 -203 -187 -195 0
-620 -201 -188 -193 0
-620 -201 -188 -194 0
-620 -201 -188 -195 0
-620 -202 -188 -194 0
-620 -202 -188 -195 0
-620 -203 -188 -195 0
-620 218 0
-620 -201 224 0
-620 -202 225 0
-620 -203 226 0
-620 -246 0
-621 186 0
-621 -204 0
-621 -178 -201 -183 0
-621 -178 -202 -184 0
-621 -178 -203 -185 0
-621 -200 0
-621 -201 -167 -172 0
-621 -201 -167 -173 0
-621 -201 -167 -174 0
-621 -202 -167 -173 0
-621 -202 -167 -174 0
-621 -203 -167 -174 0
-621 -201 -188 -193 0
-621 -201 -188 -194 0
-621 -201 -188 -195 0
-621 -202 -188 -194 0
-621 -202 -188 -195 0
-621 -203 -188 -195 0
-621 -201 -189 -193 0
-621 -201 -189 -194 0
-621 -201 -189 -195 0
-621 -202 -189 -194 0
-621 -202 -189 -195 0
-621 -203 -189 -195 0
-621 219 0
-621 -201 224 0
-621 -202 225 0
-621 -203 226 0
-621 -246 0
-622 186 0
-622 -204 0
-622 -179 -201 -183 0
-622 -179 -202 -184 0
-622 -179 -203 -185 0
-622 -197 0
-622 -201 -168 -172 0
-622 -201 -168 -173 0
-622 -201 -168 -174 0
-622 -202 -168 -173 0
-622 -202 -168 -174 0
-622 -203 -168 -174 0
-622 -201 -189 -193 0
-622 -201 -189 -194 0
-622 -201 -189 -195 0
-622 -202 -189 -194 0
-622 -202 -189 -195 0
-622 -203 -189 -195 0
-622 -201 -190 -193 0
-622 -201 -190 -194 0
-622 -201 -190 -195 0
-622 -202 -190 -194 0
-622 -202 -190 -195 0
-622 -203 -190 -195 0
-622 220 0
-622 -201 224 0
-622 -202 225 0
-622 -203 226 0
-622 -246 0
-623 186 0
-623 -204 0
-623 -180 -201 -183 0
-623 -180 -202 -184 0
-623 -180 -203 -185 0
-623 -197 0
-623 -198 0
-623 -201 -169 -172 0
-623 -201 -169 -173 0
-623 -201 -169 -174 0
-623 -202 -169 -173 0
-623 -202 -169 -174 0
-623 -203 -169 -174 0
-623 -201 -190 -193 0
-623 -201 -190 -194 0
-623 -201 -190 -195 0
-623 -202 -190 -194 0
-623 -202 -190 -195 0
-623 -203 -190 -195 0
-623 -201 -191 -193 0
-623 -201 -191 -194 0
-623 -201 -191 -195 0
-623 -202 -191 -194 0
-623 -202 -191 -195 0
-623 -203 -191 -195 0
-623 221 0
-623 -201 224 0
-623 -202 225 0
-623 -203 226 0
-623 -246 0
-624 186 0
-624 -204 0
-624 -181 -201 -183 0
-624 -181 -202 -184 0
-624 -181 -203 -185 0
-624 -197 0
-624 -198 0
-624 -199 0
-624 -201 -170 -172 0
-624 -201 -170 -173 0
-624 -201 -170 -174 0
-624 -202 -170 -173 0
-624 -202 -170 -174 0
-624 -203 -170 -174 0
-624 -201 -191 -193 0
-624 -201 -191 -194 0
-624 -201 -191 -195 0
-624 -202 -191 -194 0
-624 -202 -191 -195 0
-624 -203 -191 -195 0
-624 222 0
-624 -201 224 0
-624 -202 225 0
-624 -203 226 0
-624 -246 0
-625 186 0
-625 -176 -182 0
-625 -165 -171 0
-625 -165 -172 0
-625 -165 -173 0
-625 -165 -174 0
-625 -187 -192 0
-625 -187 -193 0
-625 -187 -194 0
-625 -187 -195 0
-625 -197 -201 0
-625 -197 -202 0
-625 -197 -203 0
-625 -197 -204 0
-625 217 0
-625 223 0
-626 186 0
-626 -177 -182 0
-626 -166 -171 0
-626 -166 -172 0
-626 -166 -173 0
-626 -166 -174 0
-626 -187 -192 0
-626 -187 -193 0
-626 -187 -194 0
-626 -187 -195 0
-626 -188 -192 0
-626 -188 -193 0
-626 -188 -194 0
-626 -188 -195 0
-626 -197 -201 0
-626 -197 -202 0
-626 -197 -203 0
-626 -197 -204 0
-626 -198 -201 0
-626 -198 -202 0
-626 -198 -203 0
-626 -198 -204 0
-626 218 0
-626 223 0
-627 186 0
-627 -178 -182 0
-627 -167 -171 0
-627 -167 -172 0
-627 -167 -173 0
-627 -167 -174 0
-627 -188 -192 0
-627 -188 -193 0
-627 -188 -194 0
-627 -188 -195 0
-627 -189 -192 0
-627 -189 -193 0
-627 -189 -194 0
-627 -189 -195 0
-627 -197 -201 0
-627 -197 -202 0
-627 -197 -203 0
-627 -197 -204 0
-627 -198 -201 0
-627 -198 -202 0
-627 -198 -203 0
-627 -198 -204 0
-627 -199 -201 0
-627 -199 -202 0
-627 -199 -203 0
-627 -199 -204 0
-627 219 0
-627 223 0
-628 186 0
-628 -179 -182 0
-628 -168 -171 0
-628 -168 -172 0
-628 -168 -173 0
-628 -168 -174 0
-628 -189 -192 0
-628 -189 -193 0
-628 -189 -194 0
-628 -189 -195 0
-628 -190 -192 0
-628 -190 -193 0
-628 -190 -194 0
-628 -190 -195 0
-628 -198 -201 0
-628 -198 -202 0
-628 -198 -203 0
-628 -198 -204 0
-628 -199 -201 0
-628 -199 -202 0
-628 -199 -203 0
-628 -199 -204 0
-628 -200 -201 0
-628 -200 -202 0
-628 -200 -203 0
-628 -200 -204 0
-628 220 0
-628 223 0
-629 186 0
-629 -180 -182 0
-629 -169 -171 0
-629 -169 -172 0
-629 -169 -173 0
-629 -169 -174 0
-629 -190 -192 0
-629 -190 -193 0
-629 -190 -194 0
-629 -190 -195 0
-629 -191 -192 0
-629 -191 -193 0
-629 -191 -194 0
-629 -191 -195 0
-629 -199 -201 0
-629 -199 -202 0
-629 -199 -203 0
-629 -199 -204 0
-629 -200 -201 0
-629 -200 -202 0
-629 -200 -203 0
-629 -200 -204 0
-629 221 0
-629 223 0
-630 186 0
-630 -181 -182 0
-630 -170 -171 0
-630 -170 -172 0
-630 -170 -173 0
-630 -170 -174 0
-630 -191 -192 0
-630 -191 -193 0
-630 -191 -194 0
-630 -191 -195 0
-630 -200 -201 0
-630 -200 -202 0
-630 -200 -203 0
-630 -200 -204 0
-630 222 0
-630 223 0
-631 196 0
-631 -174 0
-631 -187 -171 -193 0
-631 -187 -172 -194 0
-631 -187 -173 -195 0
-631 -167 0
-631 -168 0
-631 -169 0
-631 -170 0
-631 -171 -176 -183 0
-631 -171 -176 -184 0
-631 -171 -176 -185 0
-631 -172 -176 -184 0
-631 -172 -176 -185 0
-631 -173 -176 -185 0
-631 -171 -177 -183 0
-631 -171 -177 -184 0
-631 -171 -177 -185 0
-631 -172 -177 -184 0
-631 -172 -177 -185 0
-631 -173 -177 -185 0
-631 -171 -197 -202 0
-631 -171 -197 -203 0
-631 -171 -197 -204 0
-631 -172 -197 -203 0
-631 -172 -197 -204 0
-631 -173 -197 -204 0
-631 -171 -198 -202 0
-631 -171 -198 -203 0
-631 -171 -198 -204 0
-631 -172 -198 -203 0
-631 -172 -198 -204 0
-631 -173 -198 -204 0
-631 228 0
-631 -171 234 0
-631 -172 235 0
-631 -173 236 0
-631 -216 0
-632 196 0
-632 -174 0
-632 -188 -171 -193 0
-632 -188 -172 -194 0
-632 -188 -173 -195 0
-632 -165 0
-632 -168 0
-632 -169 0
-632 -170 0
-632 -171 -177 -183 0
-632 -171 -177 -184 0
-632 -171 -177 -185 0
-632 -172 -177 -184 0
-632 -172 -177 -185 0
-632 -173 -177 -185 0
-632 -171 -178 -183 0
-632 -171 -178 -184 0
-632 -171 -178 -185 0
-632 -172 -178 -184 0
-632 -172 -178 -185 0
-632 -173 -178 -185 0
-632 -171 -197 -202 0
-632 -171 -197 -203 0
-632 -171 -197 -204 0
-632 -172 -197 -203 0
-632 -172 -197 -204 0
-632 -173 -197 -204 0
-632 -171 -198 -202 0
-632 -171 -198 -203 0
-632 -171 -198 -204 0
-632 -172 -198 -203 0
-632 -172 -198 -204 0
-632 -173 -198 -204 0
-632 -171 -199 -202 0
-632 -171 -199 -203 0
-632 -171 -199 -204 0
-632 -172 -199 -203 0
-632 -172 -199 -204 0
-632 -173 -199 -204 0
-632 229 0
-632 -171 234 0
-632 -172 235 0
-632 -173 236 0
-632 -216 0
-633 196 0
-633 -174 0
-633 -189 -171 -193 0
-633 -189 -172 -194 0
-633 -189 -173 -195 0
-633 -165 0
-633 -166 0
-633 -169 0
-633 -170 0
-633 -171 -178 -183 0
-633 -171 -178 -184 0
-633 -171 -178 -185 0
-633 -172 -178 -184 0
-633 -172 -178 -185 0
-633 -173 -178 -185 0
-633 -171 -179 -183 0
-633 -171 -179 -184 0
-633 -171 -179 -185 0
-633 -172 -179 -184 0
-633 -172 -179 -185 0
-633 -173 -179 -185 0
-633 -171 -197 -202 0
-633 -171 -197 -203 0
-633 -171 -197 -204 0
-633 -172 -197 -203 0
-633 -172 -197 -204 0
-633 -173 -197 -204 0
-633 -171 -198 -202 0
-633 -171 -198 -203 0
-633 -171 -198 -204 0
-633 -172 -198 -203 0
-633 -172 -198 -204 0
-633 -173 -198 -204 0
-633 -171 -199 -202 0
-633 -171 -199 -203 0
-633 -171 -199 -204 0
-633 -172 -199 -203 0
-633 -172 -199 -204 0
-633 -173 -199 -204 0
-633 -171 -200 -202 0
-633 -171 -200 -203 0
-633 -171 -200 -204 0
-633 -172 -200 -203 0
-633 -172 -200 -204 0
-633 -173 -200 -204 0
-633 230 0
-633 -171 234 0
-633 -172 235 0
-633 -173 236 0
-633 -216 0
-634 196 0
-634 -174 0
-634 -190 -171 -193 0
-634 -190 -172 -194 0
-634 -190 -173 -195 0
-634 -165 0
-634 -166 0
-634 -167 0
-634 -170 0
-634 -171 -179 -183 0
-634 -171 -179 -184 0
-634 -171 -179 -185 0
-634 -172 -179 -184 0
-634 -172 -179 -185 0
-634 -173 -179 -185 0
-634 -171 -180 -183 0
-634 -171 -180 -184 0
-634 -171 -180 -185 0
-634 -172 -180 -184 0
-634 -172 -180 -185 0
-634 -173 -180 -185 0
-634 -171 -198 -202 0
-634 -171 -198 -203 0
-634 -171 -198 -204 0
-634 -172 -198 -203 0
-634 -172 -198 -204 0
-634 -173 -198 -204 0
-634 -171 -199 -202 0
-634 -171 -199 -203 0
-634 -171 -199 -204 0
-634 -172 -199 -203 0
-634 -172 -199 -204 0
-634 -173 -199 -204 0
-634 -171 -200 -202 0
-634 -171 -200 -203 0
-634 -171 -200 -204 0
-634 -172 -200 -203 0
-634 -172 -200 -204 0
-634 -173 -200 -204 0
-634 231 0
-634 -171 234 0
-634 -172 235 0
-634 -173 236 0
-634 -216 0
-635 196 0
-635 -174 0
-635 -191 -171 -193 0
-635 -191 -172 -194 0
-635 -191 -173 -195 0
-635 -165 0
-635 -166 0
-635 -167 0
-635 -168 0
-635 -171 -180 -183 0
-635 -171 -180 -184 0
-635 -171 -180 -185 0
-635 -172 -180 -184 0
-635 -172 -180 -185 0
-635 -173 -180 -185 0
-635 -171 -181 -183 0
-635 -171 -181 -184 0
-635 -171 -181 -185 0
-635 -172 -181 -184 0
-635 -172 -181 -185 0
-635 -173 -181 -185 0
-635 -171 -199 -202 0
-635 -171 -199 -203 0
-635 -171 -199 -204 0
-635 -172 -199 -203 0
-635 -172 -199 -204 0
-635 -173 -199 -204 0
-635 -171 -200 -202 0
-635 -171 -200 -203 0
-635 -171 -200 -204 0
-635 -172 -200 -203 0
-635 -172 -200 -204 0
-635 -173 -200 -204 0
-635 232 0
-635 -171 234 0
-635 -172 235 0
-635 -173 236 0
-635 -216 0
-636 196 0
-636 -185 0
-636 -187 -182 -193 0
-636 -187 -183 -194 0
-636 -187 -184 -195 0
-636 -178 0
-636 -179 0
-636 -180 0
-636 -181 0
-636 -182 -165 -172 0
-636 -182 -165 -173 0
-636 -182 -165 -174 0
-636 -183 -165 -173 0
-636 -183 -165 -174 0
-636 -184 -165 -174 0
-636 -182 -166 -172 0
-636 -182 -166 -173 0
-636 -182 -166 -174 0
-636 -183 -166 -173 0
-636 -183 -166 -174 0
-636 -184 -166 -174 0
-636 -182 -197 -202 0
-636 -182 -197 -203 0
-636 -182 -197 -204 0
-636 -183 -197 -203 0
-636 -183 -197 -204 0
-636 -184 -197 -204 0
-636 -182 -198 -202 0
-636 -182 -198 -203 0
-636 -182 -198 -204 0
-636 -183 -198 -203 0
-636 -183 -198 -204 0
-636 -184 -198 -204 0
-636 228 0
-636 -182 234 0
-636 -183 235 0
-636 -184 236 0
-636 -227 0
-637 196 0
-637 -185 0
-637 -188 -182 -193 0
-637 -188 -183 -194 0
-637 -188 -184 -195 0
-637 -176 0
-637 -179 0
-637 -180 0
-637 -181 0
-637 -182 -166 -172 0
-637 -182 -166 -173 0
-637 -182 -166 -174 0
-637 -183 -166 -173 0
-637 -183 -166 -174 0
-637 -184 -166 -174 0
-637 -182 -167 -172 0
-637 -182 -167 -173 0
-637 -182 -167 -174 0
-637 -183 -167 -173 0
-637 -183 -167 -174 0
-637 -184 -167 -174 0
-637 -182 -197 -202 0
-637 -182 -197 -203 0
-637 -182 -197 -204 0
-637 -183 -197 -203 0
-637 -183 -197 -204 0
-637 -184 -197 -204 0
-637 -182 -198 -202 0
-637 -182 -198 -203 0
-637 -182 -198 -204 0
-637 -183 -198 -203 0
-637 -183 -198 -204 0
-637 -184 -198 -204 0
-637 -182 -199 -202 0
-637 -182 -199 -203 0
-637 -182 -199 -204 0
-637 -183 -199 -203 0
-637 -183 -199 -204 0
-637 -184 -199 -204 0
-637 229 0
-637 -182 234 0
-637 -183 235 0
-637 -184 236 0
-637 -227 0
-638 196 0
-638 -185 0
-638 -189 -182 -193 0
-638 -189 -183 -194 0
-638 -189 -184 -195 0
-638 -176 0
-638 -177 0
-638 -180 0
-638 -181 0
-638 -182 -167 -172 0
-638 -182 -167 -173 0
-638 -182 -167 -174 0
-638 -183 -167 -173 0
-638 -183 -167 -174 0
-638 -184 -167 -174 0
-638 -182 -168 -172 0
-638 -182 -168 -173 0
-638 -182 -168 -174 0
-638 -183 -168 -173 0
-638 -183 -168 -174 0
-638 -184 -168 -174 0
-638 -182 -197 -202 0
-638 -182 -197 -203 0
-638 -182 -197 -204 0
-638 -183 -197 -203 0
-638 -183 -197 -204 0
-638 -184 -197 -204 0
-638 -182 -198 -202 0
-638 -182 -198 -203 0
-638 -182 -198 -204 0
-638 -183 -198 -203 0
-638 -183 -198 -204 0
-638 -184 -198 -204 0
-638 -182 -199 -202 0
-638 -182 -199 -203 0
-638 -182 -199 -204 0
-638 -183 -199 -203 0
-638 -183 -199 -204 0
-638 -184 -199 -204 0
-638 -182 -200 -202 0
-638 -182 -200 -203 0
-638 -182 -200 -204 0
-638 -183 -200 -203 0
-638 -183 -200 -204 0
-638 -184 -200 -204 0
-638 230 0
-638 -182 234 0
-638 -183 235 0
-638 -184 236 0
-638 -227 0
-639 196 0
-639 -185 0
-639 -190 -182 -193 0
-639 -190 -183 -194 0
-639 -190 -184 -195 0
-639 -176 0
-639 -177 0
-639 -178 0
-639 -181 0
-639 -182 -168 -172 0
-639 -182 -168 -173 0
-639 -182 -168 -174 0
-639 -183 -168 -173 0
-639 -183 -168 -174 0
-639 -184 -168 -174 0
-639 -182 -169 -172 0
-639 -182 -169 -173 0
-639 -182 -169 -174 0
-639 -183 -169 -173 0
-639 -183 -169 -174 0
-639 -184 -169 -174 0
-639 -182 -198 -202 0
-639 -182 -198 -203 0
-639 -182 -198 -204 0
-639 -183 -198 -203 0
-639 -183 -198 -204 0
-639 -184 -198 -204 0
-639 -182 -199 -202 0
-639 -182 -199 -203 0
-639 -182 -199 -204 0
-639 -183 -199 -203 0
-639 -183 -199 -204 0
-639 -184 -199 -204 0
-639 -182 -200 -202 0
-639 -182 -200 -203 0
-639 -182 -200 -204 0
-639 -183 -200 -203 0
-639 -183 -200 -204 0
-639 -184 -200 -204 0
-639 231 0
-639 -182 234 0
-639 -183 235 0
-639 -184 236 0
-639 -227 0
-640 196 0
-640 -185 0
-640 -191 -182 -193 0
-640 -191 -183 -194 0
-640 -191 -184 -195 0
-640 -176 0
-640 -177 0
-640 -178 0
-640 -179 0
-640 -182 -169 -172 0
-640 -182 -169 -173 0
-640 -182 -169 -174 0
-640 -183 -169 -173 0
-640 -183 -169 -174 0
-640 -184 -169 -174 0
-640 -182 -170 -172 0
-640 -182 -170 -173 0
-640 -182 -170 -174 0
-640 -183 -170 -173 0
-640 -183 -170 -174 0
-640 -184 -170 -174 0
-640 -182 -199 -202 0
-640 -182 -199 -203 0
-640 -182 -199 -204 0
-640 -183 -199 -203 0
-640 -183 -199 -204 0
-640 -184 -199 -204 0
-640 -182 -200 -202 0
-640 -182 -200 -203 0
-640 -182 -200 -204 0
-640 -183 -200 -203 0
-640 -183 -200 -204 0
-640 -184 -200 -204 0
-640 232 0
-640 -182 234 0
-640 -183 235 0
-640 -184 236 0
-640 -227 0
-641 196 0
-641 -204 0
-641 -187 -201 -193 0
-641 -187 -202 -194 0
-641 -187 -203 -195 0
-641 -199 0
-641 -200 0
-641 -201 -165 -172 0
-641 -201 -165 -173 0
-641 -201 -165 -174 0
-641 -202 -165 -173 0
-641 -202 -165 -174 0
-641 -203 -165 -174 0
-641 -201 -166 -172 0
-641 -201 -166 -173 0
-641 -201 -166 -174 0
-641 -202 -166 -173 0
-641 -202 -166 -174 0
-641 -203 -166 -174 0
-641 -201 -176 -183 0
-641 -201 -176 -184 0
-641 -201 -176 -185 0
-641 -202 -176 -184 0
-641 -202 -176 -185 0
-641 -203 -176 -185 0
-641 -201 -177 -183 0
-641 -201 -177 -184 0
-641 -201 -177 -185 0
-641 -202 -177 -184 0
-641 -202 -177 -185 0
-641 -203 -177 -185 0
-641 228 0
-641 -201 234 0
-641 -202 235 0
-641 -203 236 0
-641 -246 0
-642 196 0
-642 -204 0
-642 -188 -201 -193 0
-642 -188 -202 -194 0
-642 -188 -203 -195 0
-642 -200 0
-642 -201 -166 -172 0
-642 -201 -166 -173 0
-642 -201 -166 -174 0
-642 -202 -166 -173 0
-642 -202 -166 -174 0
-642 -203 -166 -174 0
-642 -201 -167 -172 0
-642 -201 -167 -173 0
-642 -201 -167 -174 0
-642 -202 -167 -173 0
-642 -202 -167 -174 0
-642 -203 -167 -174 0
-642 -201 -177 -183 0
-642 -201 -177 -184 0
-642 -201 -177 -185 0
-642 -202 -177 -184 0
-642 -202 -177 -185 0
-642 -203 -177 -185 0
-642 -201 -178 -183 0
-642 -201 -178 -184 0
-642 -201 -178 -185 0
-642 -202 -178 -184 0
-642 -202 -178 -185 0
-642 -203 -178 -185 0
-642 229 0
-642 -201 234 0
-642 -202 235 0
-642 -203 236 0
-642 -246 0
-643 196 0
-643 -204 0
-643 -189 -201 -193 0
-643 -189 -202 -194 0
-643 -189 -203 -195 0
-643 -201 -167 -172 0
-643 -201 -167 -173 0
-643 -201 -167 -174 0
-643 -202 -167 -173 0
-643 -202 -167 -174 0
-643 -203 -167 -174 0
-643 -201 -168 -172 0
-643 -201 -168 -173 0
-643 -201 -168 -174 0
-643 -202 -168 -173 0
-643 -202 -168 -174 0
-643 -203 -168 -174 0
-643 -201 -178 -183 0
-643 -201 -178 -184 0
-643 -201 -178 -185 0
-643 -202 -178 -184 0
-643 -202 -178 -185 0
-643 -203 -178 -185 0
-643 -201 -179 -183 0
-643 -201 -179 -184 0
-643 -201 -179 -185 0
-643 -202 -179 -184 0
-643 -202 -179 -185 0
-643 -203 -179 -185 0
-643 230 0
-643 -201 234 0
-643 -202 235 0
-643 -203 236 0
-643 -246 0
-644 196 0
-644 -204 0
-644 -190 -201 -193 0
-644 -190 -202 -194 0
-644 -190 -203 -195 0
-644 -197 0
-644 -201 -168 -172 0
-644 -201 -168 -173 0
-644 -201 -168 -174 0
-644 -202 -168 -173 0
-644 -202 -168 -174 0
-644 -203 -168 -174 0
-644 -201 -169 -172 0
-644 -201 -169 -173 0
-644 -201 -169 -174 0
-644 -202 -169 -173 0
-644 -202 -169 -174 0
-644 -203 -169 -174 0
-644 -201 -179 -183 0
-644 -201 -179 -184 0
-644 -201 -179 -185 0
-644 -202 -179 -184 0
-644 -202 -179 -185 0
-644 -203 -179 -185 0
-644 -201 -180 -183 0
-644 -201 -180 -184 0
-644 -201 -180 -185 0
-644 -202 -180 -184 0
-644 -202 -180 -185 0
-644 -203 -180 -185 0
-644 231 0
-644 -201 234 0
-644 -202 235 0
-644 -203 236 0
-644 -246 0
-645 196 0
-645 -204 0
-645 -191 -201 -193 0
-645 -191 -202 -194 0
-645 -191 -203 -195 0
-645 -197 0
-645 -198 0
-645 -201 -169 -172 0
-645 -201 -169 -173 0
-645 -201 -169 -174 0
-645 -202 -169 -173 0
-645 -202 -169 -174 0
-645 -203 -169 -174 0
-645 -201 -170 -172 0
-645 -201 -170 -173 0
-645 -201 -170 -174 0
-645 -202 -170 -173 0
-645 -202 -170 -174 0
-645 -203 -170 -174 0
-645 -201 -180 -183 0
-645 -201 -180 -184 0
-645 -201 -180 -185 0
-645 -202 -180 -184 0
-645 -202 -180 -185 0
-645 -203 -180 -185 0
-645 -201 -181 -183 0
-645 -201 -181 -184 0
-645 -201 -181 -185 0
-645 -202 -181 -184 0
-645 -202 -181 -185 0
-645 -203 -181 -185 0
-645 232 0
-645 -201 234 0
-645 -202 235 0
-645 -203 236 0
-645 -246 0
-646 196 0
-646 -187 -192 0
-646 -165 -171 0
-646 -165 -172 0
-646 -165 -173 0
-646 -165 -174 0
-646 -166 -171 0
-646 -166 -172 0
-646 -166 -173 0
-646 -166 -174 0
-646 -176 -182 0
-646 -176 -183 0
-646 -176 -184 0
-646 -176 -185 0
-646 -177 -182 0
-646 -177 -183 0
-646 -177 -184 0
-646 -177 -185 0
-646 -197 -201 0
-646 -197 -202 0
-646 -197 -203 0
-646 -197 -204 0
-646 -198 -201 0
-646 -198 -202 0
-646 -198 -203 0
-646 -198 -204 0
-646 228 0
-646 233 0
-647 196 0
-647 -188 -192 0
-647 -166 -171 0
-647 -166 -172 0
-647 -166 -173 0
-647 -166 -174 0
-647 -167 -171 0
-647 -167 -172 0
-647 -167 -173 0
-647 -167 -174 0
-647 -177 -182 0
-647 -177 -183 0
-647 -177 -184 0
-647 -177 -185 0
-647 -178 -182 0
-647 -178 -183 0
-647 -178 -184 0
-647 -178 -185 0
-647 -197 -201 0
-647 -197 -202 0
-647 -197 -203 0
-647 -197 -204 0
-647 -198 -201 0
-647 -198 -202 0
-647 -198 -203 0
-647 -198 -204 0
-647 -199 -201 0
-647 -199 -202 0
-647 -199 -203 0
-647 -199 -204 0
-647 229 0
-647 233 0
-648 196 0
-648 -189 -192 0
-648 -167 -171 0
-648 -167 -172 0
-648 -167 -173 0
-648 -167 -174 0
-648 -168 -171 0
-648 -168 -172 0
-648 -168 -173 0
-648 -168 -174 0
-648 -178 -182 0
-648 -178 -183 0
-648 -178 -184 0
-648 -178 -185 0
-648 -179 -182 0
-648 -179 -183 0
-648 -179 -184 0
-648 -179 -185 0
-648 -197 -201 0
-648 -197 -202 0
-648 -197 -203 0
-648 -197 -204 0
-648 -198 -201 0
-648 -198 -202 0
-648 -198 -203 0
-648 -198 -204 0
-648 -199 -201 0
-648 -199 -202 0
-648 -199 -203 0
-648 -199 -204 0
-648 -200 -201 0
-648 -200 -202 0
-648 -200 -203 0
-648 -200 -204 0
-648 230 0
-648 233 0
-649 196 0
-649 -190 -192 0
-649 -168 -171 0
-649 -168 -172 0
-649 -168 -173 0
-649 -168 -174 0
-649 -169 -171 0
-649 -169 -172 0
-649 -169 -173 0
-649 -169 -174 0
-649 -179 -182 0
-649 -179 -183 0
-649 -179 -184 0
-649 -179 -185 0
-649 -180 -182 0
-649 -180 -183 0
-649 -180 -184 0
-649 -180 -185 0
-649 -198 -201 0
-649 -198 -202 0
-649 -198 -203 0
-649 -198 -204 0
-649 -199 -201 0
-649 -199 -202 0
-649 -199 -203 0
-649 -199 -204 0
-649 -200 -201 0
-649 -200 -202 0
-649 -200 -203 0
-649 -200 -204 0
-649 231 0
-649 233 0
-650 196 0
-650 -191 -192 0
-650 -169 -171 0
-650 -169 -172 0
-650 -169 -173 0
-650 -169 -174 0
-650 -170 -171 0
-650 -170 -172 0
-650 -170 -173 0
-650 -170 -174 0
-650 -180 -182 0
-650 -180 -183 0
-650 -180 -184 0
-650 -180 -185 0
-650 -181 -182 0
-650 -181 -183 0
-650 -181 -184 0
-650 -181 -185 0
-650 -199 -201 0
-650 -199 -202 0
-650 -199 -203 0
-650 -199 -204 0
-650 -200 -201 0
-650 -200 -202 0
-650 -200 -203 0
-650 -200 -204 0
-650 232 0
-650 233 0
-651 205 0
-651 -174 0
-651 -197 -171 -202 0
-651 -197 -172 -203 0
-651 -197 -173 -204 0
-651 -168 0
-651 -169 0
-651 -170 0
-651 -171 -176 -183 0
-651 -171 -176 -184 0
-651 -171 -176 -185 0
-651 -172 -176 -184 0
-651 -172 -176 -185 0
-651 -173 -176 -185 0
-651 -171 -177 -183 0
-651 -171 -177 -184 0
-651 -171 -177 -185 0
-651 -172 -177 -184 0
-651 -172 -177 -185 0
-651 -173 -177 -185 0
-651 -171 -178 -183 0
-651 -171 -178 -184 0
-651 -171 -178 -185 0
-651 -172 -178 -184 0
-651 -172 -178 -185 0
-651 -173 -178 -185 0
-651 -171 -187 -193 0
-651 -171 -187 -194 0
-651 -171 -187 -195 0
-651 -172 -187 -194 0
-651 -172 -187 -195 0
-651 -173 -187 -195 0
-651 -171 -188 -193 0
-651 -171 -188 -194 0
-651 -171 -188 -195 0
-651 -172 -188 -194 0
-651 -172 -188 -195 0
-651 -173 -188 -195 0
-651 -171 -189 -193 0
-651 -171 -189 -194 0
-651 -171 -189 -195 0
-651 -172 -189 -194 0
-651 -172 -189 -195 0
-651 -173 -189 -195 0
-651 238 0
-651 -171 243 0
-651 -172 244 0
-651 -173 245 0
-651 -216 0
-652 205 0
-652 -174 0
-652 -198 -171 -202 0
-652 -198 -172 -203 0
-652 -198 -173 -204 0
-652 -165 0
-652 -169 0
-652 -170 0
-652 -171 -177 -183 0
-652 -171 -177 -184 0
-652 -171 -177 -185 0
-652 -172 -177 -184 0
-652 -172 -177 -185 0
-652 -173 -177 -185 0
-652 -171 -178 -183 0
-652 -171 -178 -184 0
-652 -171 -178 -185 0
-652 -172 -178 -184 0
-652 -172 -178 -185 0
-652 -173 -178 -185 0
-652 -171 -179 -183 0
-652 -171 -179 -184 0
-652 -171 -179 -185 0
-652 -172 -179 -184 0
-652 -172 -179 -185 0
-652 -173 -179 -185 0
-652 -171 -187 -193 0
-652 -171 -187 -194 0
-652 -171 -187 -195 0
-652 -172 -187 -194 0
-652 -172 -187 -195 0
-652 -173 -187 -195 0
-652 -171 -188 -193 0
-652 -171 -188 -194 0
-652 -171 -188 -195 0
-652 -172 -188 -194 0
-652 -172 -188 -195 0
-652 -173 -188 -195 0
-652 -171 -189 -193 0
-652 -171 -189 -194 0
-652 -171 -189 -195 0
-652 -172 -189 -194 0
-652 -172 -189 -195 0
-652 -173 -189 -195 0
-652 -171 -190 -193 0
-652 -171 -190 -194 0
-652 -171 -190 -195 0
-652 -172 -190 -194 0
-652 -172 -190 -195 0
-652 -173 -190 -195 0
-652 239 0
-652 -171 243 0
-652 -172 244 0
-652 -173 245 0
-652 -216 0
-653 205 0
-653 -174 0
-653 -199 -171 -202 0
-653 -199 -172 -203 0
-653 -199 -173 -204 0
-653 -165 0
-653 -166 0
-653 -170 0
-653 -171 -178 -183 0
-653 -171 -178 -184 0
-653 -171 -178 -185 0
-653 -172 -178 -184 0
-653 -172 -178 -185 0
-653 -173 -178 -185 0
-653 -171 -179 -183 0
-653 -171 -179 -184 0
-653 -171 -179 -185 0
-653 -172 -179 -184 0
-653 -172 -179 -185 0
-653 -173 -179 -185 0
-653 -171 -180 -183 0
-653 -171 -180 -184 0
-653 -171 -180 -185 0
-653 -172 -180 -184 0
-653 -172 -180 -185 0
-653 -173 -180 -185 0
-653 -171 -188 -193 0
-653 -171 -188 -194 0
-653 -171 -188 -195 0
-653 -172 -188 -194 0
-653 -172 -188 -195 0
-653 -173 -188 -195 0
-653 -171 -189 -193 0
-653 -171 -189 -194 0
-653 -171 -189 -195 0
-653 -172 -189 -194 0
-653 -172 -189 -195 0
-653 -173 -189 -195 0
-653 -171 -190 -193 0
-653 -171 -190 -194 0
-653 -171 -190 -195 0
-653 -172 -190 -194 0
-653 -172 -190 -195 0
-653 -173 -190 -195 0
-653 -171 -191 -193 0
-653 -171 -191 -194 0
-653 -171 -191 -195 0
-653 -172 -191 -194 0
-653 -172 -191 -195 0
-653 -173 -191 -195 0
-653 240 0
-653 -171 243 0
-653 -172 244 0
-653 -173 245 0
-653 -216 0
-654 205 0
-654 -174 0
-654 -200 -171 -202 0
-654 -200 -172 -203 0
-654 -200 -173 -204 0
-654 -165 0
-654 -166 0
-654 -167 0
-654 -171 -179 -183 0
-654 -171 -179 -184 0
-654 -171 -179 -185 0
-654 -172 -179 -184 0
-654 -172 -179 -185 0
-654 -173 -179 -185 0
-654 -171 -180 -183 0
-654 -171 -180 -184 0
-654 -171 -180 -185 0
-654 -172 -180 -184 0
-654 -172 -180 -185 0
-654 -173 -180 -185 0
-654 -171 -181 -183 0
-654 -171 -181 -184 0
-654 -171 -181 -185 0
-654 -172 -181 -184 0
-654 -172 -181 -185 0
-654 -173 -181 -185 0
-654 -171 -189 -193 0
-654 -171 -189 -194 0
-654 -171 -189 -195 0
-654 -172 -189 -194 0
-654 -172 -189 -195 0
-654 -173 -189 -195 0
-654 -171 -190 -193 0
-654 -171 -190 -194 0
-654 -171 -190 -195 0
-654 -172 -190 -194 0
-654 -172 -190 -195 0
-654 -173 -190 -195 0
-654 -171 -191 -193 0
-654 -171 -191 -194 0
-654 -171 -191 -195 0
-654 -172 -191 -194 0
-654 -172 -191 -195 0
-654 -173 -191 -195 0
-654 241 0
-654 -171 243 0
-654 -172 244 0
-654 -173 245 0
-654 -216 0
-655 205 0
-655 -185 0
-655 -197 -182 -202 0
-655 -197 -183 -203 0
-655 -197 -184 -204 0
-655 -179 0
-655 -180 0
-655 -181 0
-655 -182 -165 -172 0
-655 -182 -165 -173 0
-655 -182 -165 -174 0
-655 -183 -165 -173 0
-655 -183 -165 -174 0
-655 -184 -165 -174 0
-655 -182 -166 -172 0
-655 -182 -166 -173 0
-655 -182 -166 -174 0
-655 -183 -166 -173 0
-655 -183 -166 -174 0
-655 -184 -166 -174 0
-655 -182 -167 -172 0
-655 -182 -167 -173 0
-655 -182 -167 -174 0
-655 -183 -167 -173 0
-655 -183 -167 -174 0
-655 -184 -167 -174 0
-655 -182 -187 -193 0
-655 -182 -187 -194 0
-655 -182 -187 -195 0
-655 -183 -187 -194 0
-655 -183 -187 -195 0
-655 -184 -187 -195 0
-655 -182 -188 -193 0
-655 -182 -188 -194 0
-655 -182 -188 -195 0
-655 -183 -188 -194 0
-655 -183 -188 -195 0
-655 -184 -188 -195 0
-655 -182 -189 -193 0
-655 -182 -189 -194 0
-655 -182 -189 -195 0
-655 -183 -189 -194 0
-655 -183 -189 -195 0
-655 -184 -189 -195 0
-655 238 0
-655 -182 243 0
-655 -183 244 0
-655 -184 245 0
-655 -227 0
-656 205 0
-656 -185 0
-656 -198 -182 -202 0
-656 -198 -183 -203 0
-656 -198 -184 -204 0
-656 -176 0
-656 -180 0
-656 -181 0
-656 -182 -166 -172 0
-656 -182 -166 -173 0
-656 -182 -166 -174 0
-656 -183 -166 -173 0
-656 -183 -166 -174 0
-656 -184 -166 -174 0
-656 -182 -167 -172 0
-656 -182 -167 -173 0
-656 -182 -167 -174 0
-656 -183 -167 -173 0
-656 -183 -167 -174 0
-656 -184 -167 -174 0
-656 -182 -168 -172 0
-656 -182 -168 -173 0
-656 -182 -168 -174 0
-656 -183 -168 -173 0
-656 -183 -168 -174 0
-656 -184 -168 -174 0
-656 -182 -187 -193 0
-656 -182 -187 -194 0
-656 -182 -187 -195 0
-656 -183 -187 -194 0
-656 -183 -187 -195 0
-656 -184 -187 -195 0
-656 -182 -188 -193 0
-656 -182 -188 -194 0
-656 -182 -188 -195 0
-656 -183 -188 -194 0
-656 -183 -188 -195 0
-656 -184 -188 -195 0
-656 -182 -189 -193 0
-656 -182 -189 -194 0
-656 -182 -189 -195 0
-656 -183 -189 -194 0
-656 -183 -189 -195 0
-656 -184 -189 -195 0
-656 -182 -190 -193 0
-656 -182 -190 -194 0
-656 -182 -190 -195 0
-656 -183 -190 -194 0
-656 -183 -190 -195 0
-656 -184 -190 -195 0
-656 239 0
-656 -182 243 0
-656 -183 244 0
-656 -184 245 0
-656 -227 0
-657 205 0
-657 -185 0
-657 -199 -182 -202 0
-657 -199 -183 -203 0
-657 -199 -184 -204 0
-657 -176 0
-657 -177 0
-657 -181 0
-657 -182 -167 -172 0
-657 -182 -167 -173 0
-657 -182 -167 -174 0
-657 -183 -167 -173 0
-657 -183 -167 -174 0
-657 -184 -167 -174 0
-657 -182 -168 -172 0
-657 -182 -168 -173 0
-657 -182 -168 -174 0
-657 -183 -168 -173 0
-657 -183 -168 -174 0
-657 -184 -168 -174 0
-657 -182 -169 -172 0
-657 -182 -169 -173 0
-657 -182 -169 -174 0
-657 -183 -169 -173 0
-657 -183 -169 -174 0
-657 -184 -169 -174 0
-657 -182 -188 -193 0
-657 -182 -188 -194 0
-657 -182 -188 -195 0
-657 -183 -188 -194 0
-657 -183 -188 -195 0
-657 -184 -188 -195 0
-657 -182 -189 -193 0
-657 -182 -189 -194 0
-657 -182 -189 -195 0
-657 -183 -189 -194 0
-657 -183 -189 -195 0
-657 -184 -189 -195 0
-657 -182 -190 -193 0
-657 -182 -190 -194 0
-657 -182 -190 -195 0
-657 -183 -190 -194 0
-657 -183 -190 -195 0
-657 -184 -190 -195 0
-657 -182 -191 -193 0
-657 -182 -191 -194 0
-657 -182 -191 -195 0
-657 -183 -191 -194 0
-657 -183 -191 -195 0
-657 -184 -191 -195 0
-657 240 0
-657 -182 243 0
-657 -183 244 0
-657 -184 245 0
-657 -227 0
-658 205 0
-658 -185 0
-658 -200 -182 -202 0
-658 -200 -183 -203 0
-658 -200 -184 -204 0
-658 -176 0
-658 -177 0
-658 -178 0
-658 -182 -168 -172 0
-658 -182 -168 -173 0
-658 -182 -168 -174 0
-658 -183 -168 -173 0
-658 -183 -168 -174 0
-658 -184 -168 -174 0
-658 -182 -169 -172 0
-658 -182 -169 -173 0
-658 -182 -169 -174 0
-658 -183 -169 -173 0
-658 -183 -169 -174 0
-658 -184 -169 -174 0
-658 -182 -170 -172 0
-658 -182 -170 -173 0
-658 -182 -170 -174 0
-658 -183 -170 -173 0
-658 -183 -170 -174 0
-658 -184 -170 -174 0
-658 -182 -189 -193 0
-658 -182 -189 -194 0
-658 -182 -189 -195 0
-658 -183 -189 -194 0
-658 -183 -189 -195 0
-658 -184 -189 -195 0
-658 -182 -190 -193 0
-658 -182 -190 -194 0
-658 -182 -190 -195 0
-658 -183 -190 -194 0
-658 -183 -190 -195 0
-658 -184 -190 -195 0
-658 -182 -191 -193 0
-658 -182 -191 -194 0
-658 -182 -191 -195 0
-658 -183 -191 -194 0
-658 -183 -191 -195 0
-658 -184 -191 -195 0
-658 241 0
-658 -182 243 0
-658 -183 244 0
-658 -184 245 0
-658 -227 0
-659 205 0
-659 -195 0
-659 -197 -192 -202 0
-659 -197 -193 -203 0
-659 -197 -194 -204 0
-659 -190 0
-659 -191 0
-659 -192 -165 -172 0
-659 -192 -165 -173 0
-659 -192 -165 -174 0
-659 -193 -165 -173 0
-659 -193 -165 -174 0
-659 -194 -165 -174 0
-659 -192 -166 -172 0
-659 -192 -166 -173 0
-659 -192 -166 -174 0
-659 -193 -166 -173 0
-659 -193 -166 -174 0
-659 -194 -166 -174 0
-659 -192 -167 -172 0
-659 -192 -167 -173 0
-659 -192 -167 -174 0
-659 -193 -167 -173 0
-659 -193 -167 -174 0
-659 -194 -167 -174 0
-659 -192 -176 -183 0
-659 -192 -176 -184 0
-659 -192 -176 -185 0
-659 -193 -176 -184 0
-659 -193 -176 -185 0
-659 -194 -176 -185 0
-659 -192 -177 -183 0
-659 -192 -177 -184 0
-659 -192 -177 -185 0
-659 -193 -177 -184 0
-659 -193 -177 -185 0
-659 -194 -177 -185 0
-659 -192 -178 -183 0
-659 -192 -178 -184 0
-659 -192 -178 -185 0
-659 -193 -178 -184 0
-659 -193 -178 -185 0
-659 -194 -178 -185 0
-659 238 0
-659 -192 243 0
-659 -193 244 0
-659 -194 245 0
-659 -237 0
-660 205 0
-660 -195 0
-660 -198 -192 -202 0
-660 -198 -193 -203 0
-660 -198 -194 -204 0
-660 -191 0
-660 -192 -166 -172 0
-660 -192 -166 -173 0
-660 -192 -166 -174 0
-660 -193 -166 -173 0
-660 -193 -166 -174 0
-660 -194 -166 -174 0
-660 -192 -167 -172 0
-660 -192 -167 -173 0
-660 -192 -167 -174 0
-660 -193 -167 -173 0
-660 -193 -167 -174 0
-660 -194 -167 -174 0
-660 -192 -168 -172 0
-660 -192 -168 -173 0
-660 -192 -168 -174 0
-660 -193 -168 -173 0
-660 -193 -168 -174 0
-660 -194 -168 -174 0
-660 -192 -177 -183 0
-660 -192 -177 -184 0
-660 -192 -177 -185 0
-660 -193 -177 -184 0
-660 -193 -177 -185 0
-660 -194 -177 -185 0
-660 -192 -178 -183 0
-660 -192 -178 -184 0
-660 -192 -178 -185 0
-660 -193 -178 -184 0
-660 -193 -178 -185 0
-660 -194 -178 -185 0
-660 -192 -179 -183 0
-660 -192 -179 -184 0
-660 -192 -179 -185 0
-660 -193 -179 -184 0
-660 -193 -179 -185 0
-660 -194 -179 -185 0
-660 239 0
-660 -192 243 0
-660 -193 244 0
-660 -194 245 0
-660 -237 0
-661 205 0
-661 -195 0
-661 -199 -192 -202 0
-661 -199 -193 -203 0
-661 -199 -194 -204 0
-661 -187 0
-661 -192 -167 -172 0
-661 -192 -167 -173 0
-661 -192 -167 -174 0
-661 -193 -167 -173 0
-661 -193 -167 -174 0
-661 -194 -167 -174 0
-661 -192 -168 -172 0
-661 -192 -168 -173 0
-661 -192 -168 -174 0
-661 -193 -168 -173 0
-661 -193 -168 -174 0
-661 -194 -168 -174 0
-661 -192 -169 -172 0
-661 -192 -169 -173 0
-661 -192 -169 -174 0
-661 -193 -169 -173 0
-661 -193 -169 -174 0
-661 -194 -169 -174 0
-661 -192 -178 -183 0
-661 -192 -178 -184 0
-661 -192 -178 -185 0
-661 -193 -178 -184 0
-661 -193 -178 -185 0
-661 -194 -178 -185 0
-661 -192 -179 -183 0
-661 -192 -179 -184 0
-661 -192 -179 -185 0
-661 -193 -179 -184 0
-661 -193 -179 -185 0
-661 -194 -179 -185 0
-661 -192 -180 -183 0
-661 -192 -180 -184 0
-661 -192 -180 -185 0
-661 -193 -180 -184 0
-661 -193 -180 -185 0
-661 -194 -180 -185 0
-661 240 0
-661 -192 243 0
-661 -193 244 0
-661 -194 245 0
-661 -237 0
-662 205 0
-662 -195 0
-662 -200 -192 -202 0
-662 -200 -193 -203 0
-662 -200 -194 -204 0
-662 -187 0
-662 -188 0
-662 -192 -168 -172 0
-662 -192 -168 -173 0
-662 -192 -168 -174 0
-662 -193 -168 -173 0
-662 -193 -168 -174 0
-662 -194 -168 -174 0
-662 -192 -169 -172 0
-662 -192 -169 -173 0
-662 -192 -169 -174 0
-662 -193 -169 -173 0
-662 -193 -169 -174 0
-662 -194 -169 -174 0
-662 -192 -170 -172 0
-662 -192 -170 -173 0
-662 -192 -170 -174 0
-662 -193 -170 -173 0
-662 -193 -170 -174 0
-662 -194 -170 -174 0
-662 -192 -179 -183 0
-662 -192 -179 -184 0
-662 -192 -179 -185 0
-662 -193 -179 -184 0
-662 -193 -179 -185 0
-662 -194 -179 -185 0
-662 -192 -180 -183 0
-662 -192 -180 -184 0
-662 -192 -180 -185 0
-662 -193 -180 -184 0
-662 -193 -180 -185 0
-662 -194 -180 -185 0
-662 -192 -181 -183 0
-662 -192 -181 -184 0
-662 -192 -181 -185 0
-662 -193 -181 -184 0
-662 -193 -181 -185 0
-662 -194 -181 -185 0
-662 241 0
-662 -192 243 0
-662 -193 244 0
-662 -194 245 0
-662 -237 0
-663 205 0
-663 -197 -201 0
-663 -165 -171 0
-663 -165 -172 0
-663 -165 -173 0
-663 -165 -174 0
-663 -166 -171 0
-663 -166 -172 0
-663 -166 -173 0
-663 -166 -174 0
-663 -167 -171 0
-663 -167 -172 0
-663 -167 -173 0
-663 -167 -174 0
-663 -176 -182 0
-663 -176 -183 0
-663 -176 -184 0
-663 -176 -185 0
-663 -177 -182 0
-663 -177 -183 0
-663 -177 -184 0
-663 -177 -185 0
-663 -178 -182 0
-663 -178 -183 0
-663 -178 -184 0
-663 -178 -185 0
-663 -187 -192 0
-663 -187 -193 0
-663 -187 -194 0
-663 -187 -195 0
-663 -188 -192 0
-663 -188 -193 0
-663 -188 -194 0
-663 -188 -195 0
-663 -189 -192 0
-663 -189 -193 0
-663 -189 -194 0
-663 -189 -195 0
-663 238 0
-663 242 0
-664 205 0
-664 -198 -201 0
-664 -166 -171 0
-664 -166 -172 0
-664 -166 -173 0
-664 -166 -174 0
-664 -167 -171 0
-664 -167 -172 0
-664 -167 -173 0
-664 -167 -174 0
-664 -168 -171 0
-664 -168 -172 0
-664 -168 -173 0
-664 -168 -174 0
-664 -177 -182 0
-664 -177 -183 0
-664 -177 -184 0
-664 -177 -185 0
-664 -178 -182 0
-664 -178 -183 0
-664 -178 -184 0
-664 -178 -185 0
-664 -179 -182 0
-664 -179 -183 0
-664 -179 -184 0
-664 -179 -185 0
-664 -187 -192 0
-664 -187 -193 0
-664 -187 -194 0
-664 -187 -195 0
-664 -188 -192 0
-664 -188 -193 0
-664 -188 -194 0
-664 -188 -195 0
-664 -189 -192 0
-664 -189 -193 0
-664 -189 -194 0
-664 -189 -195 0
-664 -190 -192 0
-664 -190 -193 0
-664 -190 -194 0
-664 -190 -195 0
-664 239 0
-664 242 0
-665 205 0
-665 -199 -201 0
-665 -167 -171 0
-665 -167 -172 0
-665 -167 -173 0
-665 -167 -174 0
-665 -168 -171 0
-665 -168 -172 0
-665 -168 -173 0
-665 -168 -174 0
-665 -169 -171 0
-665 -169 -172 0
-665 -169 -173 0
-665 -169 -174 0
-665 -178 -182 0
-665 -178 -183 0
-665 -178 -184 0
-665 -178 -185 0
-665 -179 -182 0
-665 -179 -183 0
-665 -179 -184 0
-665 -179 -185 0
-665 -180 -182 0
-665 -180 -183 0
-665 -180 -184 0
-665 -180 -185 0
-665 -188 -192 0
-665 -188 -193 0
-665 -188 -194 0
-665 -188 -195 0
-665 -189 -192 0
-665 -189 -193 0
-665 -189 -194 0
-665 -189 -195 0
-665 -190 -192 0
-665 -190 -193 0
-665 -190 -194 0
-665 -190 -195 0
-665 -191 -192 0
-665 -191 -193 0
-665 -191 -194 0
-665 -191 -195 0
-665 240 0
-665 242 0
-666 205 0
-666 -200 -201 0
-666 -168 -171 0
-666 -168 -172 0
-666 -168 -173 0
-666 -168 -174 0
-666 -169 -171 0
-666 -169 -172 0
-666 -169 -173 0
-666 -169 -174 0
-666 -170 -171 0
-666 -170 -172 0
-666 -170 -173 0
-666 -170 -174 0
-666 -179 -182 0
-666 -179 -183 0
-666 -179 -184 0
-666 -179 -185 0
-666 -180 -182 0
-666 -180 -183 0
-666 -180 -184 0
-666 -180 -185 0
-666 -181 -182 0
-666 -181 -183 0
-666 -181 -184 0
-666 -181 -185 0
-666 -189 -192 0
-666 -189 -193 0
-666 -189 -194 0
-666 -189 -195 0
-666 -190 -192 0
-666 -190 -193 0
-666 -190 -194 0
-666 -190 -195 0
-666 -191 -192 0
-666 -191 -193 0
-666 -191 -194 0
-666 -191 -195 0
-666 241 0
-666 242 0
-1 42 247 248 249 250 251 252 253 254 255 256 257 258 259 260 261 262 263 264 265 266 267 268 269 270 0
-2 43 247 248 249 250 251 252 253 254 255 256 257 258 259 260 261 262 263 264 265 266 267 268 269 270 0
-3 44 247 248 249 250 251 252 253 254 255 256 257 258 259 260 261 262 263 264 265 266 267 268 269 270 0
-4 45 247 248 249 250 251 252 253 254 255 256 257 258 259 260 261 262 263 264 265 266 267 268 269 270 0
-5 46 247 248 249 250 251 252 253 254 255 256 257 258 259 260 261 262 263 264 265 266 267 268 269 270 0
-6 47 247 248 249 250 251 252 253 254 255 256 257 258 259 260 261 262 263 264 265 266 267 268 269 270 0
-7 48 247 248 249 250 251 252 253 254 255 256 257 258 259 260 261 262 263 264 265 266 267 268 269 270 0
-8 49 247 248 249 250 251 252 253 254 255 256 257 258 259 260 261 262 263 264 265 266 267 268 269 270 0
-9 50 247 248 249 250 251 252 253 254 255 256 257 258 259 260 261 262 263 264 265 266 267 268 269 270 0
-10 51 247 248 249 250 251 252 253 254 255 256 257 258 259 260 261 262 263 264 265 266 267 268 269 270 0
-12 53 271 272 273 274 275 276 277 278 279 280 281 282 283 284 285 286 287 288 289 290 291 292 293 294 0
-13 54 271 272 273 274 275 276 277 278 279 280 281 282 283 284 285 286 287 288 289 290 291 292 293 294 0
-14 55 271 272 273 274 275 276 277 278 279 280 281 282 283 284 285 286 287 288 289 290 291 292 293 294 0
-15 56 271 272 273 274 275 276 277 278 279 280 281 282 283 284 285 286 287 288 289 290 291 292 293 294 0
-16 57 271 272 273 274 275 276 277 278 279 280 281 282 283 284 285 286 287 288 289 290 291 292 293 294 0
-17 58 271 272 273 274 275 276 277 278 279 280 281 282 283 284 285 286 287 288 289 290 291 292 293 294 0
-18 59 271 272 273 274 275 276 277 278 279 280 281 282 283 284 285 286 287 288 289 290 291 292 293 294 0
-19 60 271 272 273 274 275 276 277 278 279 280 281 282 283 284 285 286 287 288 289 290 291 292 293 294 0
-20 61 271 272 273 274 275 276 277 278 279 280 281 282 283 284 285 286 287 288 289 290 291 292 293 294 0
-21 62 271 272 273 274 275 276 277 278 279 280 281 282 283 284 285 286 287 288 289 290 291 292 293 294 0
-23 64 295 296 297 298 299 300 301 302 303 304 305 306 307 308 309 310 311 312 313 314 0
-24 65 295 296 297 298 299 300 301 302 303 304 305 306 307 308 309 310 311 312 313 314 0
-25 66 295 296 297 298 299 300 301 302 303 304 305 306 307 308 309 310 311 312 313 314 0
-26 67 295 296 297 298 299 300 301 302 303 304 305 306 307 308 309 310 311 312 313 314 0
-27 68 295 296 297 298 299 300 301 302 303 304 305 306 307 308 309 310 311 312 313 314 0
-28 69 295 296 297 298 299 300 301 302 303 304 305 306 307 308 309 310 311 312 313 314 0
-29 70 295 296 297 298 299 300 301 302 303 304 305 306 307 308 309 310 311 312 313 314 0
-30 71 295 296 297 298 299 300 301 302 303 304 305 306 307 308 309 310 311 312 313 314 0
-31 72 295 296 297 298 299 300 301 302 303 304 305 306 307 308 309 310 311 312 313 314 0
-33 74 315 316 317 318 319 320 321 322 323 324 325 326 327 328 329 330 0
-34 75 315 316 317 318 319 320 321 322 323 324 325 326 327 328 329 330 0
-35 76 315 316 317 318 319 320 321 322 323 324 325 326 327 328 329 330 0
-36 77 315 316 317 318 319 320 321 322 323 324 325 326 327 328 329 330 0
-37 78 315 316 317 318 319 320 321 322 323 324 325 326 327 328 329 330 0
-38 79 315 316 317 318 319 320 321 322 323 324 325 326 327 328 329 330 0
-39 80 315 316 317 318 319 320 321 322 323 324 325 326 327 328 329 330 0
-40 81 315 316 317 318 319 320 321 322 323 324 325 326 327 328 329 330 0
-42 83 331 332 333 334 335 336 337 338 339 340 341 342 343 344 345 346 347 348 349 350 351 352 353 354 0
-43 84 331 332 333 334 335 336 337 338 339 340 341 342 343 344 345 346 347 348 349 350 351 352 353 354 0
-44 85 331 332 333 334 335 336 337 338 339 340 341 342 343 344 345 346 347 348 349 350 351 352 353 354 0
-45 86 331 332 333 334 335 336 337 338 339 340 341 342 343 344 345 346 347 348 349 350 351 352 353 354 0
-46 87 331 332 333 334 335 336 337 338 339 340 341 342 343 344 345 346 347 348 349 350 351 352 353 354 0
-47 88 331 332 333 334 335 336 337 338 339 340 341 342 343 344 345 346 347 348 349 350 351 352 353 354 0
-48 89 331 332 333 334 335 336 337 338 339 340 341 342 343 344 345 346 347 348 349 350 351 352 353 354 0
-49 90 331 332 333 334 335 336 337 338 339 340 341 342 343 344 345 346 347 348 349 350 351 352 353 354 0
-50 91 331 332 333 334 335 336 337 338 339 340 341 342 343 344 345 346 347 348 349 350 351 352 353 354 0
-51 92 331 332 333 334 335 336 337 338 339 340 341 342 343 344 345 346 347 348 349 350 351 352 353 354 0
-53 94 355 356 357 358 359 360 361 362 363 364 365 366 367 368 369 370 371 372 373 374 375 376 377 378 0
-54 95 355 356 357 358 359 360 361 362 363 364 365 366 367 368 369 370 371 372 373 374 375 376 377 378 0
-55 96 355 356 357 358 359 360 361 362 363 364 365 366 367 368 369 370 371 372 373 374 375 376 377 378 0
-56 97 355 356 357 358 359 360 361 362 363 364 365 366 367 368 369 370 371 372 373 374 375 376 377 378 0
-57 98 355 356 357 358 359 360 361 362 363 364 365 366 367 368 369 370 371 372 373 374 375 376 377 378 0
-58 99 355 356 357 358 359 360 361 362 363 364 365 366 367 368 369 370 371 372 373 374 375 376 377 378 0
-59 100 355 356 357 358 359 360 361 362 363 364 365 366 367 368 369 370 371 372 373 374 375 376 377 378 0
-60 101 355 356 357 358 359 360 361 362 363 364 365 366 367 368 369 370 371 372 373 374 375 376 377 378 0
-61 102 355 356 357 358 359 360 361 362 363 364 365 366 367 368 369 370 371 372 373 374 375 376 377 378 0
-62 103 355 356 357 358 359 360 361 362 363 364 365 366 367 368 369 370 371 372 373 374 375 376 377 378 0
-64 105 379 380 381 382 383 384 385 386 387 388 389 390 391 392 393 394 395 396 397 398 0
-65 106 379 380 381 382 383 384 385 386 387 388 389 390 391 392 393 394 395 396 397 398 0
-66 107 379 380 381 382 383 384 385 386 387 388 389 390 391 392 393 394 395 396 397 398 0
-67 108 379 380 381 382 383 384 385 386 387 388 389 390 391 392 393 394 395 396 397 398 0
-68 109 379 380 381 382 383 384 385 386 387 388 389 390 391 392 393 394 395 396 397 398 0
-69 110 379 380 381 382 383 384 385 386 387 388 389 390 391 392 393 394 395 396 397 398 0
-70 111 379 380 381 382 383 384 385 386 387 388 389 390 391 392 393 394 395 396 397 398 0
-71 112 379 380 381 382 383 384 385 386 387 388 389 390 391 392 393 394 395 396 397 398 0
-72 113 379 380 381 382 383 384 385 386 387 388 389 390 391 392 393 394 395 396 397 398 0
-74 115 399 400 401 402 403 404 405 406 407 408 409 410 411 412 413 414 0
-75 116 399 400 401 402 403 404 405 406 407 408 409 410 411 412 413 414 0
-76 117 399 400 401 402 403 404 405 406 407 408 409 410 411 412 413 414 0
-77 118 399 400 401 402 403 404 405 406 407 408 409 410 411 412 413 414 0
-78 119 399 400 401 402 403 404 405 406 407 408 409 410 411 412 413 414 0
-79 120 399 400 401 402 403 404 405 406 407 408 409 410 411 412 413 414 0
-80 121 399 400 401 402 403 404 405 406 407 408 409 410 411 412 413 414 0
-81 122 399 400 401 402 403 404 405 406 407 408 409 410 411 412 413 414 0
-83 124 415 416 417 418 419 420 421 422 423 424 425 426 427 428 429 430 431 432 433 434 435 436 437 438 0
-84 125 415 416 417 418 419 420 421 422 423 424 425 426 427 428 429 430 431 432 433 434 435 436 437 438 0
-85 126 415 416 417 418 419 420 421 422 423 424 425 426 427 428 429 430 431 432 433 434 435 436 437 438 0
-86 127 415 416 417 418 419 420 421 422 423 424 425 426 427 428 429 430 431 432 433 434 435 436 437 438 0
-87 128 415 416 417 418 419 420 421 422 423 424 425 426 427 428 429 430 431 432 433 434 435 436 437 438 0
-88 129 415 416 417 418 419 420 421 422 423 424 425 426 427 428 429 430 431 432 433 434 435 436 437 438 0
-89 130 415 416 417 418 419 420 421 422 423 424 425 426 427 428 429 430 431 432 433 434 435 436 437 438 0
-90 131 415 416 417 418 419 420 421 422 423 424 425 426 427 428 429 430 431 432 433 434 435 436 437 438 0
-91 132 415 416 417 418 419 420 421 422 423 424 425 426 427 428 429 430 431 432 433 434 435 436 437 438 0
-92 133 415 416 417 418 419 420 421 422 423 424 425 426 427 428 429 430 431 432 433 434 435 436 437 438 0
-94 135 439 440 441 442 443 444 445 446 447 448 449 450 451 452 453 454 455 456 457 458 459 460 461 462 0
-95 136 439 440 441 442 443 444 445 446 447 448 449 450 451 452 453 454 455 456 457 458 459 460 461 462 0
-96 137 439 440 441 442 443 444 445 446 447 448 449 450 451 452 453 454 455 456 457 458 459 460 461 462 0
-97 138 439 440 441 442 443 444 445 446 447 448 449 450 451 452 453 454 455 456 457 458 459 460 461 462 0
-98 139 439 440 441 442 443 444 445 446 447 448 449 450 451 452 453 454 455 456 457 458 459 460 461 462 0
-99 140 439 440 441 442 443 444 445 446 447 448 449 450 451 452 453 454 455 456 457 458 459 460 461 462 0
-100 141 439 440 441 442 443 444 445 446 447 448 449 450 451 452 453 454 455 456 457 458 459 460 461 462 0
-101 142 439 440 441 442 443 444 445 446 447 448 449 450 451 452 453 454 455 456 457 458 459 460 461 462 0
-102 143 439 440 441 442 443 444 445 446 447 448 449 450 451 452 453 454 455 456 457 458 459 460 461 462 0
-103 144 439 440 441 442 443 444 445 446 447 448 449 450 451 452 453 454 455 456 457 458 459 460 461 462 0
-105 146 463 464 465 466 467 468 469 470 471 472 473 474 475 476 477 478 479 480 481 482 0
-106 147 463 464 465 466 467 468 469 470 471 472 473 474 475 476 477 478 479 480 481 482 0
-107 148 463 464 465 466 467 468 469 470 471 472 473 474 475 476 477 478 479 480 481 482 0
-108 149 463 464 465 466 467 468 469 470 471 472 473 474 475 476 477 478 479 480 481 482 0
-109 150 463 464 465 466 467 468 469 470 471 472 473 474 475 476 477 478 479 480 481 482 0
-110 151 463 464 465 466 467 468 469 470 471 472 473 474 475 476 477 478 479 480 481 482 0
-111 152 463 464 465 466 467 468 469 470 471 472 473 474 475 476 477 478 479 480 481 482 0
-112 153 463 464 465 466 467 468 469 470 471 472 473 474 475 476 477 478 479 480 481 482 0
-113 154 463 464 465 466 467 468 469 470 471 472 473 474 475 476 477 478 479 480 481 482 0
-115 156 483 484 485 486 487 488 489 490 491 492 493 494 495 496 497 498 0
-116 157 483 484 485 486 487 488 489 490 491 492 493 494 495 496 497 498 0
-117 158 483 484 485 486 487 488 489 490 491 492 493 494 495 496 497 498 0
-118 159 483 484 485 486 487 488 489 490 491 492 493 494 495 496 497 498 0
-119 160 483 484 485 486 487 488 489 490 491 492 493 494 495 496 497 498 0
-120 161 483 484 485 486 487 488 489 490 491 492 493 494 495 496 497 498 0
-121 162 483 484 485 486 487 488 489 490 491 492 493 494 495 496 497 498 0
-122 163 483 484 485 486 487 488 489 490 491 492 493 494 495 496 497 498 0
-124 165 499 500 501 502 503 504 505 506 507 508 509 510 511 512 513 514 515 516 517 518 519 520 521 522 0
-125 166 499 500 501 502 503 504 505 506 507 508 509 510 511 512 513 514 515 516 517 518 519 520 521 522 0
-126 167 499 500 501 502 503 504 505 506 507 508 509 510 511 512 513 514 515 516 517 518 519 520 521 522 0
-127 168 499 500 501 502 503 504 505 506 507 508 509 510 511 512 513 514 515 516 517 518 519 520 521 522 0
-128 169 499 500 501 502 503 504 505 506 507 508 509 510 511 512 513 514 515 516 517 518 519 520 521 522 0
-129 170 499 500 501 502 503 504 505 506 507 508 509 510 511 512 513 514 515 516 517 518 519 520 521 522 0
-130 171 499 500 501 502 503 504 505 506 507 508 509 510 511 512 513 514 515 516 517 518 519 520 521 522 0
-131 172 499 500 501 502 503 504 505 506 507 508 509 510 511 512 513 514 515 516 517 518 519 520 521 522 0
-132 173 499 500 501 502 503 504 505 506 507 508 509 510 511 512 513 514 515 516 517 518 519 520 521 522 0
-133 174 499 500 501 502 503 504 505 506 507 508 509 510 511 512 513 514 515 516 517 518 519 520 521 522 0
-135 176 523 524 525 526 527 528 529 530 531 532 533 534 535 536 537 538 539 540 541 542 543 544 545 546 0
-136 177 523 524 525 526 527 528 529 530 531 532 533 534 535 536 537 538 539 540 541 542 543 544 545 546 0
-137 178 523 524 525 526 527 528 529 530 531 532 533 534 535 536 537 538 539 540 541 542 543 544 545 546 0
-138 179 523 524 525 526 527 528 529 530 531 532 533 534 535 536 537 538 539 540 541 542 543 544 545 546 0
-139 180 523 524 525 526 527 528 529 530 531 532 533 534 535 536 537 538 539 540 541 542 543 544 545 546 0
-140 181 523 524 525 526 527 528 529 530 531 532 533 534 535 536 537 538 539 540 541 542 543 544 545 546 0
-141 182 523 524 525 526 527 528 529 530 531 532 533 534 535 536 537 538 539 540 541 542 543 544 545 546 0
-142 183 523 524 525 526 527 528 529 530 531 532 533 534 535 536 537 538 539 540 541 542 543 544 545 546 0
-143 184 523 524 525 526 527 528 529 530 531 532 533 534 535 536 537 538 539 540 541 542 543 544 545 546 0
-144 185 523 524 525 526 527 528 529 530 531 532 533 534 535 536 537 538 539 540 541 542 543 544 545 546 0
-146 187 547 548 549 550 551 552 553 554 555 556 557 558 559 560 561 562 563 564 565 566 0
-147 188 547 548 549 550 551 552 553 554 555 556 557 558 559 560 561 562 563 564 565 566 0
-148 189 547 548 549 550 551 552 553 554 555 556 557 558 559 560 561 562 563 564 565 566 0
-149 190 547 548 549 550 551 552 553 554 555 556 557 558 559 560 561 562 563 564 565 566 0
-150 191 547 548 549 550 551 552 553 554 555 556 557 558 559 560 561 562 563 564 565 566 0
-151 192 547 548 549 550 551 552 553 554 555 556 557 558 559 560 561 562 563 564 565 566 0
-152 193 547 548 549 550 551 552 553 554 555 556 557 558 559 560 561 562 563 564 565 566 0
-153 194 547 548 549 550 551 552 553 554 555 556 557 558 559 560 561 562 563 564 565 566 0
-154 195 547 548 549 550 551 552 553 554 555 556 557 558 559 560 561 562 563 564 565 566 0
-156 197 567 568 569 570 571 572 573 574 575 576 577 578 579 580 581 582 0
-157 198 567 568 569 570 571 572 573 574 575 576 577 578 579 580 581 582 0
-158 199 567 568 569 570 571 572 573 574 575 576 577 578 579 580 581 582 0
-159 200 567 568 569 570 571 572 573 574 575 576 577 578 579 580 581 582 0
-160 201 567 568 569 570 571 572 573 574 575 576 577 578 579 580 581 582 0
-161 202 567 568 569 570 571 572 573 574 575 576 577 578 579 580 581 582 0
-162 203 567 568 569 570 571 572 573 574 575 576 577 578 579 580 581 582 0
-163 204 567 568 569 570 571 572 573 574 575 576 577 578 579 580 581 582 0
-165 206 583 584 585 586 587 588 589 590 591 592 593 594 595 596 597 598 599 600 601 602 603 604 605 606 0
-166 207 583 584 585 586 587 588 589 590 591 592 593 594 595 596 597 598 599 600 601 602 603 604 605 606 0
-167 208 583 584 585 586 587 588 589 590 591 592 593 594 595 596 597 598 599 600 601 602 603 604 605 606 0
-168 209 583 584 585 586 587 588 589 590 591 592 593 594 595 596 597 598 599 600 601 602 603 604 605 606 0
-169 210 583 584 585 586 587 588 589 590 591 592 593 594 595 596 597 598 599 600 601 602 603 604 605 606 0
-170 211 583 584 585 586 587 588 589 590 591 592 593 594 595 596 597 598 599 600 601 602 603 604 605 606 0
-171 212 583 584 585 586 587 588 589 590 591 592 593 594 595 596 597 598 599 600 601 602 603 604 605 606 0
-172 213 583 584 585 586 587 588 589 590 591 592 593 594 595 596 597 598 599 600 601 602 603 604 605 606 0
-173 214 583 584 585 586 587 588 589 590 591 592 593 594 595 596 597 598 599 600 601 602 603 604 605 606 0
-174 215 583 584 585 586 587 588 589 590 591 592 593 594 595 596 597 598 599 600 601 602 603 604 605 606 0
-176 217 607 608 609 610 611 612 613 614 615 616 617 618 619 620 621 622 623 624 625 626 627 628 629 630 0
-177 218 607 608 609 610 611 612 613 614 615 616 617 618 619 620 621 622 623 624 625 626 627 628 629 630 0
-178 219 607 608 609 610 611 612 613 614 615 616 617 618 619 620 621 622 623 624 625 626 627 628 629 630 0
-179 220 607 608 609 610 611 612 613 614 615 616 617 618 619 620 621 622 623 624 625 626 627 628 629 630 0
-180 221 607 608 609 610 611 612 613 614 615 616 617 618 619 620 621 622 623 624 625 626 627 628 629 630 0
-181 222 607 608 609 610 611 612 613 614 615 616 617 618 619 620 621 622 623 624 625 626 627 628 629 630 0
-182 223 607 608 609 610 611 612 613 614 615 616 617 618 619 620 621 622 623 624 625 626 627 628 629 630 0
-183 224 607 608 609 610 611 612 613 614 615 616 617 618 619 620 621 622 623 624 625 626 627 628 629 630 0
-184 225 607 608 609 610 611 612 613 614 615 616 617 618 619 620 621 622 623 624 625 626 627 628 629 630 0
-185 226 607 608 609 610 611 612 613 614 615 616 617 618 619 620 621 622 623 624 625 626 627 628 629 630 0
-187 228 631 632 633 634 635 636 637 638 639 640 641 642 643 644 645 646 647 648 649 650 0
-188 229 631 632 633 634 635 636 637 638 639 640 641 642 643 644 645 646 647 648 649 650 0
-189 230 631 632 633 634 635 636 637 638 639 640 641 642 643 644 645 646 647 648 649 650 0
-190 231 631 632 633 634 635 636 637 638 639 640 641 642 643 644 645 646 647 648 649 650 0
-191 232 631 632 633 634 635 636 637 638 639 640 641 642 643 644 645 646 647 648 649 650 0
-192 233 631 632 633 634 635 636 637 638 639 640 641 642 643 644 645 646 647 648 649 650 0
-193 234 631 632 633 634 635 636 637 638 639 640 641 642 643 644 645 646 647 648 649 650 0
-194 235 631 632 633 634 635 636 637 638 639 640 641 642 643 644 645 646 647 648 649 650 0
-195 236 631 632 633 634 635 636 637 638 639 640 641 642 643 644 645 646 647 648 649 650 0
-197 238 651 652 653 654 655 656 657 658 659 660 661 662 663 664 665 666 0
-198 239 651 652 653 654 655 656 657 658 659 660 661 662 663 664 665 666 0
-199 240 651 652 653 654 655 656 657 658 659 660 661 662 663 664 665 666 0
-200 241 651 652 653 654 655 656 657 658 659 660 661 662 663 664 665 666 0
-201 242 651 652 653 654 655 656 657 658 659 660 661 662 663 664 665 666 0
-202 243 651 652 653 654 655 656 657 658 659 660 661 662 663 664 665 666 0
-203 244 651 652 653 654 655 656 657 658 659 660 661 662 663 664 665 666 0
-204 245 651 652 653 654 655 656 657 658 659 660 661 662 663 664 665 666 0
247 248 249 250 251 252 253 254 255 256 257 258 259 260 261 262 263 264 265 266 267 268 269 270 271 272 273 274 275 276 277 278 279 280 281 282 283 284 285 286 287 288 289 290 291 292 293 294 295 296 297 298 299 300 301 302 303 304 305 306 307 308 309 310 311 312 313 314 315 316 317 318 319 320 321 322 323 324 325 326 327 328 329 330 0
-247 -248 0
-247 -249 0
-247 -250 0
-247 -251 0
-247 -252 0
-247 -253 0
-247 -254 0
-247 -255 0
-247 -256 0
-247 -257 0
-247 -258 0
-247 -259 0
-247 -260 0
-247 -261 0
-247 -262 0
-247 -263 0
-247 -264 0
-247 -265 0
-247 -266 0
-247 -267 0
-247 -268 0
-247 -269 0
-247 -270 0
-247 -271 0
-247 -272 0
-247 -273 0
-247 -274 0
-247 -275 0
-247 -276 0
-247 -277 0
-247 -278 0
-247 -279 0
-247 -280 0
-247 -281 0
-247 -282 0
-247 -283 0
-247 -284 0
-247 -285 0
-247 -286 0
-247 -287 0
-247 -288 0
-247 -289 0
-247 -290 0
-247 -291 0
-247 -292 0
-247 -293 0
-247 -294 0
-247 -295 0
-247 -296 0
-247 -297 0
-247 -298 0
-247 -299 0
-247 -300 0
-247 -301 0
-247 -302 0
-247 -303 0
-247 -304 0
-247 -305 0
-247 -306 0
-247 -307 0
-247 -308 0
-247 -309 0
-247 -310 0
-247 -311 0
-247 -312 0
-247 -313 0
-247 -314 0
-247 -315 0
-247 -316 0
-247 -317 0
-247 -318 0
-247 -319 0
-247 -320 0
-247 -321 0
-247 -322 0
-247 -323 0
-247 -324 0
-247 -325 0
-247 -326 0
-247 -327 0
-247 -328 0
-247 -329 0
-247 -330 0
-248 -249 0
-248 -250 0
-248 -251 0
-248 -252 0
-248 -253 0
-248 -254 0
-248 -255 0
-248 -256 0
-248 -257 0
-248 -258 0
-248 -259 0
-248 -260 0
-248 -261 0
-248 -262 0
-248 -263 0
-248 -264 0
-248 -265 0
-248 -266 0
-248 -267 0
-248 -268 0
-248 -269 0
-248 -270 0
-248 -271 0
-248 -272 0
-248 -273 0
-248 -274 0
-248 -275 0
-248 -276 0
-248 -277 0
-248 -278 0
-248 -279 0
-248 -280 0
-248 -281 0
-248 -282 0
-248 -283 0
-248 -284 0
-248 -285 0
-248 -286 0
-248 -287 0
-248 -288 0
-248 -289 0
-248 -290 0
-248 -291 0
-248 -292 0
-248 -293 0
-248 -294 0
-248 -295 0
-248 -296 0
-248 -297 0
-248 -298 0
-248 -299 0
-248 -300 0
-248 -301 0
-248 -302 0
-248 -303 0
-248 -304 0
-248 -305 0
-248 -306 0
-248 -307 0
-248 -308 0
-248 -309 0
-248 -310 0
-248 -311 0
-248 -312 0
-248 -313 0
-248 -314 0
-248 -315 0
-248 -316 0
-248 -317 0
-248 -318 0
-248 -319 0
-248 -320 0
-248 -321 0
-248 -322 0
-248 -323 0
-248 -324 0
-248 -325 0
-248 -326 0
-248 -327 0
-248 -328 0
-248 -329 0
-248 -330 0
-249 -250 0
-249 -251 0
-249 -252 0
-249 -253 0
-249 -254 0
-249 -255 0
-249 -256 0
-249 -257 0
-249 -258 0
-249 -259 0
-249 -260 0
-249 -261 0
-249 -262 0
-249 -263 0
-249 -264 0
-249 -265 0
-249 -266 0
-249 -267 0
-249 -268 0
-249 -269 0
-249 -270 0
-249 -271 0
-249 -272 0
-249 -273 0
-249 -274 0
-249 -275 0
-249 -276 0
-249 -277 0
-249 -278 0
-249 -279 0
-249 -280 0
-249 -281 0
-249 -282 0
-249 -283 0
-249 -284 0
-249 -285 0
-249 -286 0
-249 -287 0
-249 -288 0
-249 -289 0
-249 -290 0
-249 -291 0
-249 -292 0
-249 -293 0
-249 -294 0
-249 -295 0
-249 -296 0
-249 -297 0
-249 -298 0
-249 -299 0
-249 -300 0
-249 -301 0
-249 -302 0
-249 -303 0
-249 -304 0
-249 -305 0
-249 -306 0
-249 -307 0
-249 -308 0
-249 -309 0
-249 -310 0
-249 -311 0
-249 -312 0
-249 -313 0
-249 -314 0
-249 -315 0
-249 -316 0
-249 -317 0
-249 -318 0
-249 -319 0
-249 -320 0
-249 -321 0
-249 -322 0
-249 -323 0
-249 -324 0
-249 -325 0
-249 -326 0
-249 -327 0
-249 -328 0
-249 -329 0
-249 -330 0
-250 -251 0
-250 -252 0
-250 -253 0
-250 -254 0
-250 -255 0
-250 -256 0
-250 -257 0
-250 -258 0
-250 -259 0
-250 -260 0
-250 -261 0
-250 -262 0
-250 -263 0
-250 -264 0
-250 -265 0
-250 -266 0
-250 -267 0
-250 -268 0
-250 -269 0
-250 -270 0
-250 -271 0
-250 -272 0
-250 -273 0
-250 -274 0
-250 -275 0
-250 -276 0
-250 -277 0
-250 -278 0
-250 -279 0
-250 -280 0
-250 -281 0
-250 -282 0
-250 -283 0
-250 -284 0
-250 -285 0
-250 -286 0
-250 -287 0
-250 -288 0
-250 -289 0
-250 -290 0
-250 -291 0
-250 -292 0
-250 -293 0
-250 -294 0
-250 -295 0
-250 -296 0
-250 -297 0
-250 -298 0
-250 -299 0
-250 -300 0
-250 -301 0
-250 -302 0
-250 -303 0
-250 -304 0
-250 -305 0
-250 -306 0
-250 -307 0
-250 -308 0
-250 -309 0
-250 -310 0
-250 -311 0
-250 -312 0
-250 -313 0
-250 -314 0
-250 -315 0
-250 -316 0
-250 -317 0
-250 -318 0
-250 -319 0
-250 -320 0
-250 -321 0
-250 -322 0
-250 -323 0
-250 -324 0
-250 -325 0
-250 -326 0
-250 -327 0
-250 -328 0
-250 -329 0
-250 -330 0
-251 -252 0
-251 -253 0
-251 -254 0
-251 -255 0
-251 -256 0
-251 -257 0
-251 -258 0
-251 -259 0
-251 -260 0
-251 -261 0
-251 -262 0
-251 -263 0
-251 -264 0
-251 -265 0
-251 -266 0
-251 -267 0
-251 -268 0
-251 -269 0
-251 -270 0
-251 -271 0
-251 -272 0
-251 -273 0
-251 -274 0
-251 -275 0
-251 -276 0
-251 -277 0
-251 -278 0
-251 -279 0
-251 -280 0
-251 -281 0
-251 -282 0
-251 -283 0
-251 -284 0
-251 -285 0
-251 -286 0
-251 -287 0
-251 -288 0
-251 -289 0
-251 -290 0
-251 -291 0
-251 -292 0
-251 -293 0
-251 -294 0
-251 -295 0
-251 -296 0
-251 -297 0
-251 -298 0
-251 -299 0
-251 -300 0
-251 -301 0
-251 -302 0
-251 -303 0
-251 -304 0
-251 -305 0
-251 -306 0
-251 -307 0
-251 -308 0
-251 -309 0
-251 -310 0
-251 -311 0
-251 -312 0
-251 -313 0
-251 -314 0
-251 -315 0
-251 -316 0
-251 -317 0
-251 -318 0
-251 -319 0
-251 -320 0
-251 -321 0
-251 -322 0
-251 -323 0
-251 -324 0
-251 -325 0
-251 -326 0
-251 -327 0
-251 -328 0
-251 -329 0
-251 -330 0
-252 -253 0
-252 -254 0
-252 -255 0
-252 -256 0
-252 -257 0
-252 -258 0
-252 -259 0
-252 -260 0
-252 -261 0
-252 -262 0
-252 -263 0
-252 -264 0
-252 -265 0
-252 -266 0
-252 -267 0
-252 -268 0
-252 -269 0
-252 -270 0
-252 -271 0
-252 -272 0
-252 -273 0
-252 -274 0
-252 -275 0
-252 -276 0
-252 -277 0
-252 -278 0
-252 -279 0
-252 -280 0
-252 -281 0
-252 -282 0
-252 -283 0
-252 -284 0
-252 -285 0
-252 -286 0
-252 -287 0
-252 -288 0
-252 -289 0
-252 -290 0
-252 -291 0
-252 -292 0
-252 -293 0
-252 -294 0
-252 -295 0
-252 -296 0
-252 -297 0
-252 -298 0
-252 -299 0
-252 -300 0
-252 -301 0
-252 -302 0
-252 -303 0
-252 -304 0
-252 -305 0
-252 -306 0
-252 -307 0
-252 -308 0
-252 -309 0
-252 -310 0
-252 -311 0
-252 -312 0
-252 -313 0
-252 -314 0
-252 -315 0
-252 -316 0
-252 -317 0
-252 -318 0
-252 -319 0
-252 -320 0
-252 -321 0
-252 -322 0
-252 -323 0
-252 -324 0
-252 -325 0
-252 -326 0
-252 -327 0
-252 -328 0
-252 -329 0
-252 -330 0
-253 -254 0
-253 -255 0
-253 -256 0
-253 -257 0
-253 -258 0
-253 -259 0
-253 -260 0
-253 -261 0
-253 -262 0
-253 -263 0
-253 -264 0
-253 -265 0
-253 -266 0
-253 -267 0
-253 -268 0
-253 -269 0
-253 -270 0
-253 -271 0
-253 -272 0
-253 -273 0
-253 -274 0
-253 -275 0
-253 -276 0
-253 -277 0
-253 -278 0
-253 -279 0
-253 -280 0
-253 -281 0
-253 -282 0
-253 -283 0
-253 -284 0
-253 -285 0
-253 -286 0
-253 -287 0
-253 -288 0
-253 -289 0
-253 -290 0
-253 -291 0
-253 -292 0
-253 -293 0
-253 -294 0
-253 -295 0
-253 -296 0
-253 -297 0
-253 -298 0
-253 -299 0
-253 -300 0
-253 -301 0
-253 -302 0
-253 -303 0
-253 -304 0
-253 -305 0
-253 -306 0
-253 -307 0
-253 -308 0
-253 -309 0
-253 -310 0
-253 -311 0
-253 -312 0
-253 -313 0
-253 -314 0
-253 -315 0
-253 -316 0
-253 -317 0
-253 -318 0
-253 -319 0
-253 -320 0
-253 -321 0
-253 -322 0
-253 -323 0
-253 -324 0
-253 -325 0
-253 -326 0
-253 -327 0
-253 -328 0
-253 -329 0
-253 -330 0
-254 -255 0
-254 -256 0
-254 -257 0
-254 -258 0
-254 -259 0
-254 -260 0
-254 -261 0
-254 -262 0
-254 -263 0
-254 -264 0
-254 -265 0
-254 -266 0
-254 -267 0
-254 -268 0
-254 -269 0
-254 -270 0
-254 -271 0
-254 -272 0
-254 -273 0
-254 -274 0
-254 -275 0
-254 -276 0
-254 -277 0
-254 -278 0
-254 -279 0
-254 -280 0
-254 -281 0
-254 -282 0
-254 -283 0
-254 -284 0
-254 -285 0
-254 -286 0
-254 -287 0
-254 -288 0
-254 -289 0
-254 -290 0
-254 -291 0
-254 -292 0
-254 -293 0
-254 -294 0
-254 -295 0
-254 -296 0
-254 -297 0
-254 -298 0
-254 -299 0
-254 -300 0
-254 -301 0
-254 -302 0
-254 -303 0
-254 -304 0
-254 -305 0
-254 -306 0
-254 -307 0
-254 -308 0
-254 -309 0
-254 -310 0
-254 -311 0
-254 -312 0
-254 -313 0
-254 -314 0
-254 -315 0
-254 -316 0
-254 -317 0
-254 -318 0
-254 -319 0
-254 -320 0
-254 -321 0
-254 -322 0
-254 -323 0
-254 -324 0
-254 -325 0
-254 -326 0
-254 -327 0
-254 -328 0
-254 -329 0
-254 -330 0
-255 -256 0
-255 -257 0
-255 -258 0
-255 -259 0
-255 -260 0
-255 -261 0
-255 -262 0
-255 -263 0
-255 -264 0
-255 -265 0
-255 -266 0
-255 -267 0
-255 -268 0
-255 -269 0
-255 -270 0
-255 -271 0
-255 -272 0
-255 -273 0
-255 -274 0
-255 -275 0
-255 -276 0
-255 -277 0
-255 -278 0
-255 -279 0
-255 -280 0
-255 -281 0
-255 -282 0
-255 -283 0
-255 -284 0
-255 -285 0
-255 -286 0
-255 -287 0
-255 -288 0
-255 -289 0
-255 -290 0
-255 -291 0
-255 -292 0
-255 -293 0
-255 -294 0
-255 -295 0
-255 -296 0
-255 -297 0
-255 -298 0
-255 -299 0
-255 -300 0
-255 -301 0
-255 -302 0
-255 -303 0
-255 -304 0
-255 -305 0
-255 -306 0
-255 -307 0
-255 -308 0
-255 -309 0
-255 -310 0
-255 -311 0
-255 -312 0
-255 -313 0
-255 -314 0
-255 -315 0
-255 -316 0
-255 -317 0
-255 -318 0
-255 -319 0
-255 -320 0
-255 -321 0
-255 -322 0
-255 -323 0
-255 -324 0
-255 -325 0
-255 -326 0
-255 -327 0
-255 -328 0
-255 -329 0
-255 -330 0
-256 -257 0
-256 -258 0
-256 -259 0
-256 -260 0
-256 -261 0
-256 -262 0
-256 -263 0
-256 -264 0
-256 -265 0
-256 -266 0
-256 -267 0
-256 -268 0
-256 -269 0
-256 -270 0
-256 -271 0
-256 -272 0
-256 -273 0
-256 -274 0
-256 -275 0
-256 -276 0
-256 -277 0
-256 -278 0
-256 -279 0
-256 -280 0
-256 -281 0
-256 -282 0
-256 -283 0
-256 -284 0
-256 -285 0
-256 -286 0
-256 -287 0
-256 -288 0
-256 -289 0
-256 -290 0
-256 -291 0
-256 -292 0
-256 -293 0
-256 -294 0
-256 -295 0
-256 -296 0
-256 -297 0
-256 -298 0
-256 -299 0
-256 -300 0
-256 -301 0
-256 -302 0
-256 -303 0
-256 -304 0
-256 -305 0
-256 -306 0
-256 -307 0
-256 -308 0
-256 -309 0
-256 -310 0
-256 -311 0
-256 -312 0
-256 -313 0
-256 -314 0
-256 -315 0
-256 -316 0
-256 -317 0
-256 -318 0
-256 -319 0
-256 -320 0
-256 -321 0
-256 -322 0
-256 -323 0
-256 -324 0
-256 -325 0
-256 -326 0
-256 -327 0
-256 -328 0
-256 -329 0
-256 -330 0
-257 -258 0
-257 -259 0
-257 -260 0
-257 -261 0
-257 -262 0
-257 -263 0
-257 -264 0
-257 -265 0
-257 -266 0
-257 -267 0
-257 -268 0
-257 -269 0
-257 -270 0
-257 -271 0
-257 -272 0
-257 -273 0
-257 -274 0
-257 -275 0
-257 -276 0
-257 -277 0
-257 -278 0
-257 -279 0
-257 -280 0
-257 -281 0
-257 -282 0
-257 -283 0
-257 -284 0
-257 -285 0
-257 -286 0
-257 -287 0
-257 -288 0
-257 -289 0
-257 -290 0
-257 -291 0
-257 -292 0
-257 -293 0
-257 -294 0
-257 -295 0
-257 -296 0
-257 -297 0
-257 -298 0
-257 -299 0
-257 -300 0
-257 -301 0
-257 -302 0
-257 -303 0
-257 -304 0
-257 -305 0
-257 -306 0
-257 -307 0
-257 -308 0
-257 -309 0
-257 -310 0
-257 -311 0
-257 -312 0
-257 -313 0
-257 -314 0
-257 -315 0
-257 -316 0
-257 -317 0
-257 -318 0
-257 -319 0
-257 -320 0
-257 -321 0
-257 -322 0
-257 -323 0
-257 -324 0
-257 -325 0
-257 -326 0
-257 -327 0
-257 -328 0
-257 -329 0
-257 -330 0
-258 -259 0
-258 -260 0
-258 -261 0
-258 -262 0
-258 -263 0
-258 -264 0
-258 -265 0
-258 -266 0
-258 -267 0
-258 -268 0
-258 -269 0
-258 -270 0
-258 -271 0
-258 -272 0
-258 -273 0
-258 -274 0
-258 -275 0
-258 -276 0
-258 -277 0
-258 -278 0
-258 -279 0
-258 -280 0
-258 -281 0
-258 -282 0
-258 -283 0
-258 -284 0
-258 -285 0
-258 -286 0
-258 -287 0
-258 -288 0
-258 -289 0
-258 -290 0
-258 -291 0
-258 -292 0
-258 -293 0
-258 -294 0
-258 -295 0
-258 -296 0
-258 -297 0
-258 -298 0
-258 -299 0
-258 -300 0
-258 -301 0
-258 -302 0
-258 -303 0
-258 -304 0
-258 -305 0
-258 -306 0
-258 -307 0
-258 -308 0
-258 -309 0
-258 -310 0
-258 -311 0
-258 -312 0
-258 -313 0
-258 -314 0
-258 -315 0
-258 -316 0
-258 -317 0
-258 -318 0
-258 -319 0
-258 -320 0
-258 -321 0
-258 -322 0
-258 -323 0
-258 -324 0
-258 -325 0
-258 -326 0
-258 -327 0
-258 -328 0
-258 -329 0
-258 -330 0
-259 -260 0
-259 -261 0
-259 -262 0
-259 -263 0
-259 -264 0
-259 -265 0
-259 -266 0
-259 -267 0
-259 -268 0
-259 -269 0
-259 -270 0
-259 -271 0
-259 -272 0
-259 -273 0
-259 -274 0
-259 -275 0
-259 -276 0
-259 -277 0
-259 -278 0
-259 -279 0
-259 -280 0
-259 -281 0
-259 -282 0
-259 -283 0
-259 -284 0
-259 -285 0
-259 -286 0
-259 -287 0
-259 -288 0
-259 -289 0
-259 -290 0
-259 -291 0
-259 -292 0
-259 -293 0
-259 -294 0
-259 -295 0
-259 -296 0
-259 -297 0
-259 -298 0
-259 -299 0
-259 -300 0
-259 -301 0
-259 -302 0
-259 -303 0
-259 -304 0
-259 -305 0
-259 -306 0
-259 -307 0
-259 -308 0
-259 -309 0
-259 -310 0
-259 -311 0
-259 -312 0
-259 -313 0
-259 -314 0
-259 -315 0
-259 -316 0
-259 -317 0
-259 -318 0
-259 -319 0
-259 -320 0
-259 -321 0
-259 -322 0
-259 -323 0
-259 -324 0
-259 -325 0
-259 -326 0
-259 -327 0
-259 -328 0
-259 -329 0
-259 -330 0
-260 -261 0
-260 -262 0
-260 -263 0
-260 -264 0
-260 -265 0
-260 -266 0
-260 -267 0
-260 -268 0
-260 -269 0
-260 -270 0
-260 -271 0
-260 -272 0
-260 -273 0
-260 -274 0
-260 -275 0
-260 -276 0
-260 -277 0
-260 -278 0
-260 -279 0
-260 -280 0
-260 -281 0
-260 -282 0
-260 -283 0
-260 -284 0
-260 -285 0
-260 -286 0
-260 -287 0
-260 -288 0
-260 -289 0
-260 -290 0
-260 -291 0
-260 -292 0
-260 -293 0
-260 -294 0
-260 -295 0
-260 -296 0
-260 -297 0
-260 -298 0
-260 -299 0
-260 -300 0
-260 -301 0
-260 -302 0
-260 -303 0
-260 -304 0
-260 -305 0
-260 -306 0
-260 -307 0
-260 -308 0
-260 -309 0
-260 -310 0
-260 -311 0
-260 -312 0
-260 -313 0
-260 -314 0
-260 -315 0
-260 -316 0
-260 -317 0
-260 -318 0
-260 -319 0
-260 -320 0
-260 -321 0
-260 -322 0
-260 -323 0
-260 -324 0
-260 -325 0
-260 -326 0
-260 -327 0
-260 -328 0
-260 -329 0
-260 -330 0
-261 -262 0
-261 -263 0
-261 -264 0
-261 -265 0
-261 -266 0
-261 -267 0
-261 -268 0
-261 -269 0
-261 -270 0
-261 -271 0
-261 -272 0
-261 -273 0
-261 -274 0
-261 -275 0
-261 -276 0
-261 -277 0
-261 -278 0
-261 -279 0
-261 -280 0
-261 -281 0
-261 -282 0
-261 -283 0
-261 -284 0
-261 -285 0
-261 -286 0
-261 -287 0
-261 -288 0
-261 -289 0
-261 -290 0
-261 -291 0
-261 -292 0
-261 -293 0
-261 -294 0
-261 -295 0
-261 -296 0
-261 -297 0
-261 -298 0
-261 -299 0
-261 -300 0
-261 -301 0
-261 -302 0
-261 -303 0
-261 -304 0
-261 -305 0
-261 -306 0
-261 -307 0
-261 -308 0
-261 -309 0
-261 -310 0
-261 -311 0
-261 -312 0
-261 -313 0
-261 -314 0
-261 -315 0
-261 -316 0
-261 -317 0
-261 -318 0
-261 -319 0
-261 -320 0
-261 -321 0
-261 -322 0
-261 -323 0
-261 -324 0
-261 -325 0
-261 -326 0
-261 -327 0
-261 -328 0
-261 -329 0
-261 -330 0
-262 -263 0
-262 -264 0
-262 -265 0
-262 -266 0
-262 -267 0
-262 -268 0
-262 -269 0
-262 -270 0
-262 -271 0
-262 -272 0
-262 -273 0
-262 -274 0
-262 -275 0
-262 -276 0
-262 -277 0
-262 -278 0
-262 -279 0
-262 -280 0
-262 -281 0
-262 -282 0
-262 -283 0
-262 -284 0
-262 -285 0
-262 -286 0
-262 -287 0
-262 -288 0
-262 -289 0
-262 -290 0
-262 -291 0
-262 -292 0
-262 -293 0
-262 -294 0
-262 -295 0
-262 -296 0
-262 -297 0
-262 -298 0
-262 -299 0
-262 -300 0
-262 -301 0
-262 -302 0
-262 -303 0
-262 -304 0
-262 -305 0
-262 -306 0
-262 -307 0
-262 -308 0
-262 -309 0
-262 -310 0
-262 -311 0
-262 -312 0
-262 -313 0
-262 -314 0
-262 -315 0
-262 -316 0
-262 -317 0
-262 -318 0
-262 -319 0
-262 -320 0
-262 -321 0
-262 -322 0
-262 -323 0
-262 -324 0
-262 -325 0
-262 -326 0
-262 -327 0
-262 -328 0
-262 -329 0
-262 -330 0
-263 -264 0
-263 -265 0
-263 -266 0
-263 -267 0
-263 -268 0
-263 -269 0
-263 -270 0
-263 -271 0
-263 -272 0
-263 -273 0
-263 -274 0
-263 -275 0
-263 -276 0
-263 -277 0
-263 -278 0
-263 -279 0
-263 -280 0
-263 -281 0
-263 -282 0
-263 -283 0
-263 -284 0
-263 -285 0
-263 -286 0
-263 -287 0
-263 -288 0
-263 -289 0
-263 -290 0
-263 -291 0
-263 -292 0
-263 -293 0
-263 -294 0
-263 -295 0
-263 -296 0
-263 -297 0
-263 -298 0
-263 -299 0
-263 -300 0
-263 -301 0
-263 -302 0
-263 -303 0
-263 -304 0
-263 -305 0
-263 -306 0
-263 -307 0
-263 -308 0
-263 -309 0
-263 -310 0
-263 -311 0
-263 -312 0
-263 -313 0
-263 -314 0
-263 -315 0
-263 -316 0
-263 -317 0
-263 -318 0
-263 -319 0
-263 -320 0
-263 -321 0
-263 -322 0
-263 -323 0
-263 -324 0
-263 -325 0
-263 -326 0
-263 -327 0
-263 -328 0
-263 -329 0
-263 -330 0
-264 -265 0
-264 -266 0
-264 -267 0
-264 -268 0
-264 -269 0
-264 -270 0
-264 -271 0
-264 -272 0
-264 -273 0
-264 -274 0
-264 -275 0
-264 -276 0
-264 -277 0
-264 -278 0
-264 -279 0
-264 -280 0
-264 -281 0
-264 -282 0
-264 -283 0
-264 -284 0
-264 -285 0
-264 -286 0
-264 -287 0
-264 -288 0
-264 -289 0
-264 -290 0
-264 -291 0
-264 -292 0
-264 -293 0
-264 -294 0
-264 -295 0
-264 -296 0
-264 -297 0
-264 -298 0
-264 -299 0
-264 -300 0
-264 -301 0
-264 -302 0
-264 -303 0
-264 -304 0
-264 -305 0
-264 -306 0
-264 -307 0
-264 -308 0
-264 -309 0
-264 -310 0
-264 -311 0
-264 -312 0
-264 -313 0
-264 -314 0
-264 -315 0
-264 -316 0
-264 -317 0
-264 -318 0
-264 -319 0
-264 -320 0
-264 -321 0
-264 -322 0
-264 -323 0
-264 -324 0
-264 -325 0
-264 -326 0
-264 -327 0
-264 -328 0
-264 -329 0
-264 -330 0
-265 -266 0
-265 -267 0
-265 -268 0
-265 -269 0
-265 -270 0
-265 -271 0
-265 -272 0
-265 -273 0
-265 -274 0
-265 -275 0
-265 -276 0
-265 -277 0
-265 -278 0
-265 -279 0
-265 -280 0
-265 -281 0
-265 -282 0
-265 -283 0
-265 -284 0
-265 -285 0
-265 -286 0
-265 -287 0
-265 -288 0
-265 -289 0
-265 -290 0
-265 -291 0
-265 -292 0
-265 -293 0
-265 -294 0
-265 -295 0
-265 -296 0
-265 -297 0
-265 -298 0
-265 -299 0
-265 -300 0
-265 -301 0
-265 -302 0
-265 -303 0
-265 -304 0
-265 -305 0
-265 -306 0
-265 -307 0
-265 -308 0
-265 -309 0
-265 -310 0
-265 -311 0
-265 -312 0
-265 -313 0
-265 -314 0
-265 -315 0
-265 -316 0
-265 -317 0
-265 -318 0
-265 -319 0
-265 -320 0
-265 -321 0
-265 -322 0
-265 -323 0
-265 -324 0
-265 -325 0
-265 -326 0
-265 -327 0
-265 -328 0
-265 -329 0
-265 -330 0
-266 -267 0
-266 -268 0
-266 -269 0
-266 -270 0
-266 -271 0
-266 -272 0
-266 -273 0
-266 -274 0
-266 -275 0
-266 -276 0
-266 -277 0
-266 -278 0
-266 -279 0
-266 -280 0
-266 -281 0
-266 -282 0
-266 -283 0
-266 -284 0
-266 -285 0
-266 -286 0
-266 -287 0
-266 -288 0
-266 -289 0
-266 -290 0
-266 -291 0
-266 -292 0
-266 -293 0
-266 -294 0
-266 -295 0
-266 -296 0
-266 -297 0
-266 -298 0
-266 -299 0
-266 -300 0
-266 -301 0
-266 -302 0
-266 -303 0
-266 -304 0
-266 -305 0
-266 -306 0
-266 -307 0
-266 -308 0
-266 -309 0
-266 -310 0
-266 -311 0
-266 -312 0
-266 -313 0
-266 -314 0
-266 -315 0
-266 -316 0
-266 -317 0
-266 -318 0
-266 -319 0
-266 -320 0
-266 -321 0
-266 -322 0
-266 -323 0
-266 -324 0
-266 -325 0
-266 -326 0
-266 -327 0
-266 -328 0
-266 -329 0
-266 -330 0
-267 -268 0
-267 -269 0
-267 -270 0
-267 -271 0
-267 -272 0
-267 -273 0
-267 -274 0
-267 -275 0
-267 -276 0
-267 -277 0
-267 -278 0
-267 -279 0
-267 -280 0
-267 -281 0
-267 -282 0
-267 -283 0
-267 -284 0
-267 -285 0
-267 -286 0
-267 -287 0
-267 -288 0
-267 -289 0
-267 -290 0
-267 -291 0
-267 -292 0
-267 -293 0
-267 -294 0
-267 -295 0
-267 -296 0
-267 -297 0
-267 -298 0
-267 -299 0
-267 -300 0
-267 -301 0
-267 -302 0
-267 -303 0
-267 -304 0
-267 -305 0
-267 -306 0
-267 -307 0
-267 -308 0
-267 -309 0
-267 -310 0
-267 -311 0
-267 -312 0
-267 -313 0
-267 -314 0
-267 -315 0
-267 -316 0
-267 -317 0
-267 -318 0
-267 -319 0
-267 -320 0
-267 -321 0
-267 -322 0
-267 -323 0
-267 -324 0
-267 -325 0
-267 -326 0
-267 -327 0
-267 -328 0
-267 -329 0
-267 -330 0
-268 -269 0
-268 -270 0
-268 -271 0
-268 -272 0
-268 -273 0
-268 -274 0
-268 -275 0
-268 -276 0
-268 -277 0
-268 -278 0
-268 -279 0
-268 -280 0
-268 -281 0
-268 -282 0
-268 -283 0
-268 -284 0
-268 -285 0
-268 -286 0
-268 -287 0
-268 -288 0
-268 -289 0
-268 -290 0
-268 -291 0
-268 -292 0
-268 -293 0
-268 -294 0
-268 -295 0
-268 -296 0
-268 -297 0
-268 -298 0
-268 -299 0
-268 -300 0
-268 -301 0
-268 -302 0
-268 -303 0
-268 -304 0
-268 -305 0
-268 -306 0
-268 -307 0
-268 -308 0
-268 -309 0
-268 -310 0
-268 -311 0
-268 -312 0
-268 -313 0
-268 -314 0
-268 -315 0
-268 -316 0
-268 -317 0
-268 -318 0
-268 -319 0
-268 -320 0
-268 -321 0
-268 -322 0
-268 -323 0
-268 -324 0
-268 -325 0
-268 -326 0
-268 -327 0
-268 -328 0
-268 -329 0
-268 -330 0
-269 -270 0
-269 -271 0
-269 -272 0
-269 -273 0
-269 -274 0
-269 -275 0
-269 -276 0
-269 -277 0
-269 -278 0
-269 -279 0
-269 -280 0
-269 -281 0
-269 -282 0
-269 -283 0
-269 -284 0
-269 -285 0
-269 -286 0
-269 -287 0
-269 -288 0
-269 -289 0
-269 -290 0
-269 -291 0
-269 -292 0
-269 -293 0
-269 -294 0
-269 -295 0
-269 -296 0
-269 -297 0
-269 -298 0
-269 -299 0
-269 -300 0
-269 -301 0
-269 -302 0
-269 -303 0
-269 -304 0
-269 -305 0
-269 -306 0
-269 -307 0
-269 -308 0
-269 -309 0
-269 -310 0
-269 -311 0
-269 -312 0
-269 -313 0
-269 -314 0
-269 -315 0
-269 -316 0
-269 -317 0
-269 -318 0
-269 -319 0
-269 -320 0
-269 -321 0
-269 -322 0
-269 -323 0
-269 -324 0
-269 -325 0
-269 -326 0
-269 -327 0
-269 -328 0
-269 -329 0
-269 -330 0
-270 -271 0
-270 -272 0
-270 -273 0
-270 -274 0
-270 -275 0
-270 -276 0
-270 -277 0
-270 -278 0
-270 -279 0
-270 -280 0
-270 -281 0
-270 -282 0
-270 -283 0
-270 -284 0
-270 -285 0
-270 -286 0
-270 -287 0
-270 -288 0
-270 -289 0
-270 -290 0
-270 -291 0
-270 -292 0
-270 -293 0
-270 -294 0
-270 -295 0
-270 -296 0
-270 -297 0
-270 -298 0
-270 -299 0
-270 -300 0
-270 -301 0
-270 -302 0
-270 -303 0
-270 -304 0
-270 -305 0
-270 -306 0
-270 -307 0
-270 -308 0
-270 -309 0
-270 -310 0
-270 -311 0
-270 -312 0
-270 -313 0
-270 -314 0
-270 -315 0
-270 -316 0
-270 -317 0
-270 -318 0
-270 -319 0
-270 -320 0
-270 -321 0
-270 -322 0
-270 -323 0
-270 -324 0
-270 -325 0
-270 -326 0
-270 -327 0
-270 -328 0
-270 -329 0
-270 -330 0
-271 -272 0
-271 -273 0
-271 -274 0
-271 -275 0
-271 -276 0
-271 -277 0
-271 -278 0
-271 -279 0
-271 -280 0
-271 -281 0
-271 -282 0
-271 -283 0
-271 -284 0
-271 -285 0
-271 -286 0
-271 -287 0
-271 -288 0
-271 -289 0
-271 -290 0
-271 -291 0
-271 -292 0
-271 -293 0
-271 -294 0
-271 -295 0
-271 -296 0
-271 -297 0
-271 -298 0
-271 -299 0
-271 -300 0
-271 -301 0
-271 -302 0
-271 -303 0
-271 -304 0
-271 -305 0
-271 -306 0
-271 -307 0
-271 -308 0
-271 -309 0
-271 -310 0
-271 -311 0
-271 -312 0
-271 -313 0
-271 -314 0
-271 -315 0
-271 -316 0
-271 -317 0
-271 -318 0
-271 -319 0
-271 -320 0
-271 -321 0
-271 -322 0
-271 -323 0
-271 -324 0
-271 -325 0
-271 -326 0
-271 -327 0
-271 -328 0
-271 -329 0
-271 -330 0
-272 -273 0
-272 -274 0
-272 -275 0
-272 -276 0
-272 -277 0
-272 -278 0
-272 -279 0
-272 -280 0
-272 -281 0
-272 -282 0
-272 -283 0
-272 -284 0
-272 -285 0
-272 -286 0
-272 -287 0
-272 -288 0
-272 -289 0
-272 -290 0
-272 -291 0
-272 -292 0
-272 -293 0
-272 -294 0
-272 -295 0
-272 -296 0
-272 -297 0
-272 -298 0
-272 -299 0
-272 -300 0
-272 -301 0
-272 -302 0
-272 -303 0
-272 -304 0
-272 -305 0
-272 -306 0
-272 -307 0
-272 -308 0
-272 -309 0
-272 -310 0
-272 -311 0
-272 -312 0
-272 -313 0
-272 -314 0
-272 -315 0
-272 -316 0
-272 -317 0
-272 -318 0
-272 -319 0
-272 -320 0
-272 -321 0
-272 -322 0
-272 -323 0
-272 -324 0
-272 -325 0
-272 -326 0
-272 -327 0
-272 -328 0
-272 -329 0
-272 -330 0
-273 -274 0
-273 -275 0
-273 -276 0
-273 -277 0
-273 -278 0
-273 -279 0
-273 -280 0
-273 -281 0
-273 -282 0
-273 -283 0
-273 -284 0
-273 -285 0
-273 -286 0
-273 -287 0
-273 -288 0
-273 -289 0
-273 -290 0
-273 -291 0
-273 -292 0
-273 -293 0
-273 -294 0
-273 -295 0
-273 -296 0
-273 -297 0
-273 -298 0
-273 -299 0
-273 -300 0
-273 -301 0
-273 -302 0
-273 -303 0
-273 -304 0
-273 -305 0
-273 -306 0
-273 -307 0
-273 -308 0
-273 -309 0
-273 -310 0
-273 -311 0
-273 -312 0
-273 -313 0
-273 -314 0
-273 -315 0
-273 -316 0
-273 -317 0
-273 -318 0
-273 -319 0
-273 -320 0
-273 -321 0
-273 -322 0
-273 -323 0
-273 -324 0
-273 -325 0
-273 -326 0
-273 -327 0
-273 -328 0
-273 -329 0
-273 -330 0
-274 -275 0
-274 -276 0
-274 -277 0
-274 -278 0
-274 -279 0
-274 -280 0
-274 -281 0
-274 -282 0
-274 -283 0
-274 -284 0
-274 -285 0
-274 -286 0
-274 -287 0
-274 -288 0
-274 -289 0
-274 -290 0
-274 -291 0
-274 -292 0
-274 -293 0
-274 -294 0
-274 -295 0
-274 -296 0
-274 -297 0
-274 -298 0
-274 -299 0
-274 -300 0
-274 -301 0
-274 -302 0
-274 -303 0
-274 -304 0
-274 -305 0
-274 -306 0
-274 -307 0
-274 -308 0
-274 -309 0
-274 -310 0
-274 -311 0
-274 -312 0
-274 -313 0
-274 -314 0
-274 -315 0
-274 -316 0
-274 -317 0
-274 -318 0
-274 -319 0
-274 -320 0
-274 -321 0
-274 -322 0
-274 -323 0
-274 -324 0
-274 -325 0
-274 -326 0
-274 -327 0
-274 -328 0
-274 -329 0
-274 -330 0
-275 -276 0
-275 -277 0
-275 -278 0
-275 -279 0
-275 -280 0
-275 -281 0
-275 -282 0
-275 -283 0
-275 -284 0
-275 -285 0
-275 -286 0
-275 -287 0
-275 -288 0
-275 -289 0
-275 -290 0
-275 -291 0
-275 -292 0
-275 -293 0
-275 -294 0
-275 -295 0
-275 -296 0
-275 -297 0
-275 -298 0
-275 -299 0
-275 -300 0
-275 -301 0
-275 -302 0
-275 -303 0
-275 -304 0
-275 -305 0
-275 -306 0
-275 -307 0
-275 -308 0
-275 -309 0
-275 -310 0
-275 -311 0
-275 -312 0
-275 -313 0
-275 -314 0
-275 -315 0
-275 -316 0
-275 -317 0
-275 -318 0
-275 -319 0
-275 -320 0
-275 -321 0
-275 -322 0
-275 -323 0
-275 -324 0
-275 -325 0
-275 -326 0
-275 -327 0
-275 -328 0
-275 -329 0
-275 -330 0
-276 -277 0
-276 -278 0
-276 -279 0
-276 -280 0
-276 -281 0
-276 -282 0
-276 -283 0
-276 -284 0
-276 -285 0
-276 -286 0
-276 -287 0
-276 -288 0
-276 -289 0
-276 -290 0
-276 -291 0
-276 -292 0
-276 -293 0
-276 -294 0
-276 -295 0
-276 -296 0
-276 -297 0
-276 -298 0
-276 -299 0
-276 -300 0
-276 -301 0
-276 -302 0
-276 -303 0
-276 -304 0
-276 -305 0
-276 -306 0
-276 -307 0
-276 -308 0
-276 -309 0
-276 -310 0
-276 -311 0
-276 -312 0
-276 -313 0
-276 -314 0
-276 -315 0
-276 -316 0
-276 -317 0
-276 -318 0
-276 -319 0
-276 -320 0
-276 -321 0
-276 -322 0
-276 -323 0
-276 -324 0
-276 -325 0
-276 -326 0
-276 -327 0
-276 -328 0
-276 -329 0
-276 -330 0
-277 -278 0
-277 -279 0
-277 -280 0
-277 -281 0
-277 -282 0
-277 -283 0
-277 -284 0
-277 -285 0
-277 -286 0
-277 -287 0
-277 -288 0
-277 -289 0
-277 -290 0
-277 -291 0
-277 -292 0
-277 -293 0
-277 -294 0
-277 -295 0
-277 -296 0
-277 -297 0
-277 -298 0
-277 -299 0
-277 -300 0
-277 -301 0
-277 -302 0
-277 -303 0
-277 -304 0
-277 -305 0
-277 -306 0
-277 -307 0
-277 -308 0
-277 -309 0
-277 -310 0
-277 -311 0
-277 -312 0
-277 -313 0
-277 -314 0
-277 -315 0
-277 -316 0
-277 -317 0
-277 -318 0
-277 -319 0
-277 -320 0
-277 -321 0
-277 -322 0
-277 -323 0
-277 -324 0
-277 -325 0
-277 -326 0
-277 -327 0
-277 -328 0
-277 -329 0
-277 -330 0
-278 -279 0
-278 -280 0
-278 -281 0
-278 -282 0
-278 -283 0
-278 -284 0
-278 -285 0
-278 -286 0
-278 -287 0
-278 -288 0
-278 -289 0
-278 -290 0
-278 -291 0
-278 -292 0
-278 -293 0
-278 -294 0
-278 -295 0
-278 -296 0
-278 -297 0
-278 -298 0
-278 -299 0
-278 -300 0
-278 -301 0
-278 -302 0
-278 -303 0
-278 -304 0
-278 -305 0
-278 -306 0
-278 -307 0
-278 -308 0
-278 -309 0
-278 -310 0
-278 -311 0
-278 -312 0
-278 -313 0
-278 -314 0
-278 -315 0
-278 -316 0
-278 -317 0
-278 -318 0
-278 -319 0
-278 -320 0
-278 -321 0
-278 -322 0
-278 -323 0
-278 -324 0
-278 -325 0
-278 -326 0
-278 -327 0
-278 -328 0
-278 -329 0
-278 -330 0
-279 -280 0
-279 -281 0
-279 -282 0
-279 -283 0
-279 -284 0
-279 -285 0
-279 -286 0
-279 -287 0
-279 -288 0
-279 -289 0
-279 -290 0
-279 -291 0
-279 -292 0
-279 -293 0
-279 -294 0
-279 -295 0
-279 -296 0
-279 -297 0
-279 -298 0
-279 -299 0
-279 -300 0
-279 -301 0
-279 -302 0
-279 -303 0
-279 -304 0
-279 -305 0
-279 -306 0
-279 -307 0
-279 -308 0
-279 -309 0
-279 -310 0
-279 -311 0
-279 -312 0
-279 -313 0
-279 -314 0
-279 -315 0
-279 -316 0
-279 -317 0
-279 -318 0
-279 -319 0
-279 -320 0
-279 -321 0
-279 -322 0
-279 -323 0
-279 -324 0
-279 -325 0
-279 -326 0
-279 -327 0
-279 -328 0
-279 -329 0
-279 -330 0
-280 -281 0
-280 -282 0
-280 -283 0
-280 -284 0
-280 -285 0
-280 -286 0
-280 -287 0
-280 -288 0
-280 -289 0
-280 -290 0
-280 -291 0
-280 -292 0
-280 -293 0
-280 -294 0
-280 -295 0
-280 -296 0
-280 -297 0
-280 -298 0
-280 -299 0
-280 -300 0
-280 -301 0
-280 -302 0
-280 -303 0
-280 -304 0
-280 -305 0
-280 -306 0
-280 -307 0
-280 -308 0
-280 -309 0
-280 -310 0
-280 -311 0
-280 -312 0
-280 -313 0
-280 -314 0
-280 -315 0
-280 -316 0
-280 -317 0
-280 -318 0
-280 -319 0
-280 -320 0
-280 -321 0
-280 -322 0
-280 -323 0
-280 -324 0
-280 -325 0
-280 -326 0
-280 -327 0
-280 -328 0
-280 -329 0
-280 -330 0
-281 -282 0
-281 -283 0
-281 -284 0
-281 -285 0
-281 -286 0
-281 -287 0
-281 -288 0
-281 -289 0
-281 -290 0
-281 -291 0
-281 -292 0
-281 -293 0
-281 -294 0
-281 -295 0
-281 -296 0
-281 -297 0
-281 -298 0
-281 -299 0
-281 -300 0
-281 -301 0
-281 -302 0
-281 -303 0
-281 -304 0
-281 -305 0
-281 -306 0
-281 -307 0
-281 -308 0
-281 -309 0
-281 -310 0
-281 -311 0
-281 -312 0
-281 -313 0
-281 -314 0
-281 -315 0
-281 -316 0
-281 -317 0
-281 -318 0
-281 -319 0
-281 -320 0
-281 -321 0
-281 -322 0
-281 -323 0
-281 -324 0
-281 -325 0
-281 -326 0
-281 -327 0
-281 -328 0
-281 -329 0
-281 -330 0
-282 -283 0
-282 -284 0
-282 -285 0
-282 -286 0
-282 -287 0
-282 -288 0
-282 -289 0
-282 -290 0
-282 -291 0
-282 -292 0
-282 -293 0
-282 -294 0
-282 -295 0
-282 -296 0
-282 -297 0
-282 -298 0
-282 -299 0
-282 -300 0
-282 -301 0
-282 -302 0
-282 -303 0
-282 -304 0
-282 -305 0
-282 -306 0
-282 -307 0
-282 -308 0
-282 -309 0
-282 -310 0
-282 -311 0
-282 -312 0
-282 -313 0
-282 -314 0
-282 -315 0
-282 -316 0
-282 -317 0
-282 -318 0
-282 -319 0
-282 -320 0
-282 -321 0
-282 -322 0
-282 -323 0
-282 -324 0
-282 -325 0
-282 -326 0
-282 -327 0
-282 -328 0
-282 -329 0
-282 -330 0
-283 -284 0
-283 -285 0
-283 -286 0
-283 -287 0
-283 -288 0
-283 -289 0
-283 -290 0
-283 -291 0
-283 -292 0
-283 -293 0
-283 -294 0
-283 -295 0
-283 -296 0
-283 -297 0
-283 -298 0
-283 -299 0
-283 -300 0
-283 -301 0
-283 -302 0
-283 -303 0
-283 -304 0
-283 -305 0
-283 -306 0
-283 -307 0
-283 -308 0
-283 -309 0
-283 -310 0
-283 -311 0
-283 -312 0
-283 -313 0
-283 -314 0
-283 -315 0
-283 -316 0
-283 -317 0
-283 -318 0
-283 -319 0
-283 -320 0
-283 -321 0
-283 -322 0
-283 -323 0
-283 -324 0
-283 -325 0
-283 -326 0
-283 -327 0
-283 -328 0
-283 -329 0
-283 -330 0
-284 -285 0
-284 -286 0
-284 -287 0
-284 -288 0
-284 -289 0
-284 -290 0
-284 -291 0
-284 -292 0
-284 -293 0
-284 -294 0
-284 -295 0
-284 -296 0
-284 -297 0
-284 -298 0
-284 -299 0
-284 -300 0
-284 -301 0
-284 -302 0
-284 -303 0
-284 -304 0
-284 -305 0
-284 -306 0
-284 -307 0
-284 -308 0
-284 -309 0
-284 -310 0
-284 -311 0
-284 -312 0
-284 -313 0
-284 -314 0
-284 -315 0
-284 -316 0
-284 -317 0
-284 -318 0
-284 -319 0
-284 -320 0
-284 -321 0
-284 -322 0
-284 -323 0
-284 -324 0
-284 -325 0
-284 -326 0
-284 -327 0
-284 -328 0
-284 -329 0
-284 -330 0
-285 -286 0
-285 -287 0
-285 -288 0
-285 -289 0
-285 -290 0
-285 -291 0
-285 -292 0
-285 -293 0
-285 -294 0
-285 -295 0
-285 -296 0
-285 -297 0
-285 -298 0
-285 -299 0
-285 -300 0
-285 -301 0
-285 -302 0
-285 -303 0
-285 -304 0
-285 -305 0
-285 -306 0
-285 -307 0
-285 -308 0
-285 -309 0
-285 -310 0
-285 -311 0
-285 -312 0
-285 -313 0
-285 -314 0
-285 -315 0
-285 -316 0
-285 -317 0
-285 -318 0
-285 -319 0
-285 -320 0
-285 -321 0
-285 -322 0
-285 -323 0
-285 -324 0
-285 -325 0
-285 -326 0
-285 -327 0
-285 -328 0
-285 -329 0
-285 -330 0
-286 -287 0
-286 -288 0
-286 -289 0
-286 -290 0
-286 -291 0
-286 -292 0
-286 -293 0
-286 -294 0
-286 -295 0
-286 -296 0
-286 -297 0
-286 -298 0
-286 -299 0
-286 -300 0
-286 -301 0
-286 -302 0
-286 -303 0
-286 -304 0
-286 -305 0
-286 -306 0
-286 -307 0
-286 -308 0
-286 -309 0
-286 -310 0
-286 -311 0
-286 -312 0
-286 -313 0
-286 -314 0
-286 -315 0
-286 -316 0
-286 -317 0
-286 -318 0
-286 -319 0
-286 -320 0
-286 -321 0
-286 -322 0
-286 -323 0
-286 -324 0
-286 -325 0
-286 -326 0
-286 -327 0
-286 -328 0
-286 -329 0
-286 -330 0
-287 -288 0
-287 -289 0
-287 -290 0
-287 -291 0
-287 -292 0
-287 -293 0
-287 -294 0
-287 -295 0
-287 -296 0
-287 -297 0
-287 -298 0
-287 -299 0
-287 -300 0
-287 -301 0
-287 -302 0
-287 -303 0
-287 -304 0
-287 -305 0
-287 -306 0
-287 -307 0
-287 -308 0
-287 -309 0
-287 -310 0
-287 -311 0
-287 -312 0
-287 -313 0
-287 -314 0
-287 -315 0
-287 -316 0
-287 -317 0
-287 -318 0
-287 -319 0
-287 -320 0
-287 -321 0
-287 -322 0
-287 -323 0
-287 -324 0
-287 -325 0
-287 -326 0
-287 -327 0
-287 -328 0
-287 -329 0
-287 -330 0
-288 -289 0
-288 -290 0
-288 -291 0
-288 -292 0
-288 -293 0
-288 -294 0
-288 -295 0
-288 -296 0
-288 -297 0
-288 -298 0
-288 -299 0
-288 -300 0
-288 -301 0
-288 -302 0
-288 -303 0
-288 -304 0
-288 -305 0
-288 -306 0
-288 -307 0
-288 -308 0
-288 -309 0
-288 -310 0
-288 -311 0
-288 -312 0
-288 -313 0
-288 -314 0
-288 -315 0
-288 -316 0
-288 -317 0
-288 -318 0
-288 -319 0
-288 -320 0
-288 -321 0
-288 -322 0
-288 -323 0
-288 -324 0
-288 -325 0
-288 -326 0
-288 -327 0
-288 -328 0
-288 -329 0
-288 -330 0
-289 -290 0
-289 -291 0
-289 -292 0
-289 -293 0
-289 -294 0
-289 -295 0
-289 -296 0
-289 -297 0
-289 -298 0
-289 -299 0
-289 -300 0
-289 -301 0
-289 -302 0
-289 -303 0
-289 -304 0
-289 -305 0
-289 -306 0
-289 -307 0
-289 -308 0
-289 -309 0
-289 -310 0
-289 -311 0
-289 -312 0
-289 -313 0
-289 -314 0
-289 -315 0
-289 -316 0
-289 -317 0
-289 -318 0
-289 -319 0
-289 -320 0
-289 -321 0
-289 -322 0
-289 -323 0
-289 -324 0
-289 -325 0
-289 -326 0
-289 -327 0
-289 -328 0
-289 -329 0
-289 -330 0
-290 -291 0
-290 -292 0
-290 -293 0
-290 -294 0
-290 -295 0
-290 -296 0
-290 -297 0
-290 -298 0
-290 -299 0
-290 -300 0
-290 -301 0
-290 -302 0
-290 -303 0
-290 -304 0
-290 -305 0
-290 -306 0
-290 -307 0
-290 -308 0
-290 -309 0
-290 -310 0
-290 -311 0
-290 -312 0
-290 -313 0
-290 -314 0
-290 -315 0
-290 -316 0
-290 -317 0
-290 -318 0
-290 -319 0
-290 -320 0
-290 -321 0
-290 -322 0
-290 -323 0
-290 -324 0
-290 -325 0
-290 -326 0
-290 -327 0
-290 -328 0
-290 -329 0
-290 -330 0
-291 -292 0
-291 -293 0
-291 -294 0
-291 -295 0
-291 -296 0
-291 -297 0
-291 -298 0
-291 -299 0
-291 -300 0
-291 -301 0
-291 -302 0
-291 -303 0
-291 -304 0
-291 -305 0
-291 -306 0
-291 -307 0
-291 -308 0
-291 -309 0
-291 -310 0
-291 -311 0
-291 -312 0
-291 -313 0
-291 -314 0
-291 -315 0
-291 -316 0
-291 -317 0
-291 -318 0
-291 -319 0
-291 -320 0
-291 -321 0
-291 -322 0
-291 -323 0
-291 -324 0
-291 -325 0
-291 -326 0
-291 -327 0
-291 -328 0
-291 -329 0
-291 -330 0
-292 -293 0
-292 -294 0
-292 -295 0
-292 -296 0
-292 -297 0
-292 -298 0
-292 -299 0
-292 -300 0
-292 -301 0
-292 -302 0
-292 -303 0
-292 -304 0
-292 -305 0
-292 -306 0
-292 -307 0
-292 -308 0
-292 -309 0
-292 -310 0
-292 -311 0
-292 -312 0
-292 -313 0
-292 -314 0
-292 -315 0
-292 -316 0
-292 -317 0
-292 -318 0
-292 -319 0
-292 -320 0
-292 -321 0
-292 -322 0
-292 -323 0
-292 -324 0
-292 -325 0
-292 -326 0
-292 -327 0
-292 -328 0
-292 -329 0
-292 -330 0
-293 -294 0
-293 -295 0
-293 -296 0
-293 -297 0
-293 -298 0
-293 -299 0
-293 -300 0
-293 -301 0
-293 -302 0
-293 -303 0
-293 -304 0
-293 -305 0
-293 -306 0
-293 -307 0
-293 -308 0
-293 -309 0
-293 -310 0
-293 -311 0
-293 -312 0
-293 -313 0
-293 -314 0
-293 -315 0
-293 -316 0
-293 -317 0
-293 -318 0
-293 -319 0
-293 -320 0
-293 -321 0
-293 -322 0
-293 -323 0
-293 -324 0
-293 -325 0
-293 -326 0
-293 -327 0
-293 -328 0
-293 -329 0
-293 -330 0
-294 -295 0
-294 -296 0
-294 -297 0
-294 -298 0
-294 -299 0
-294 -300 0
-294 -301 0
-294 -302 0
-294 -303 0
-294 -304 0
-294 -305 0
-294 -306 0
-294 -307 0
-294 -308 0
-294 -309 0
-294 -310 0
-294 -311 0
-294 -312 0
-294 -313 0
-294 -314 0
-294 -315 0
-294 -316 0
-294 -317 0
-294 -318 0
-294 -319 0
-294 -320 0
-294 -321 0
-294 -322 0
-294 -323 0
-294 -324 0
-294 -325 0
-294 -326 0
-294 -327 0
-294 -328 0
-294 -329 0
-294 -330 0
-295 -296 0
-295 -297 0
-295 -298 0
-295 -299 0
-295 -300 0
-295 -301 0
-295 -302 0
-295 -303 0
-295 -304 0
-295 -305 0
-295 -306 0
-295 -307 0
-295 -308 0
-295 -309 0
-295 -310 0
-295 -311 0
-295 -312 0
-295 -313 0
-295 -314 0
-295 -315 0
-295 -316 0
-295 -317 0
-295 -318 0
-295 -319 0
-295 -320 0
-295 -321 0
-295 -322 0
-295 -323 0
-295 -324 0
-295 -325 0
-295 -326 0
-295 -327 0
-295 -328 0
-295 -329 0
-295 -330 0
-296 -297 0
-296 -298 0
-296 -299 0
-296 -300 0
-296 -301 0
-296 -302 0
-296 -303 0
-296 -304 0
-296 -305 0
-296 -306 0
-296 -307 0
-296 -308 0
-296 -309 0
-296 -310 0
-296 -311 0
-296 -312 0
-296 -313 0
-296 -314 0
-296 -315 0
-296 -316 0
-296 -317 0
-296 -318 0
-296 -319 0
-296 -320 0
-296 -321 0
-296 -322 0
-296 -323 0
-296 -324 0
-296 -325 0
-296 -326 0
-296 -327 0
-296 -328 0
-296 -329 0
-296 -330 0
-297 -298 0
-297 -299 0
-297 -300 0
-297 -301 0
-297 -302 0
-297 -303 0
-297 -304 0
-297 -305 0
-297 -306 0
-297 -307 0
-297 -308 0
-297 -309 0
-297 -310 0
-297 -311 0
-297 -312 0
-297 -313 0
-297 -314 0
-297 -315 0
-297 -316 0
-297 -317 0
-297 -318 0
-297 -319 0
-297 -320 0
-297 -321 0
-297 -322 0
-297 -323 0
-297 -324 0
-297 -325 0
-297 -326 0
-297 -327 0
-297 -328 0
-297 -329 0
-297 -330 0
-298 -299 0
-298 -300 0
-298 -301 0
-298 -302 0
-298 -303 0
-298 -304 0
-298 -305 0
-298 -306 0
-298 -307 0
-298 -308 0
-298 -309 0
-298 -310 0
-298 -311 0
-298 -312 0
-298 -313 0
-298 -314 0
-298 -315 0
-298 -316 0
-298 -317 0
-298 -318 0
-298 -319 0
-298 -320 0
-298 -321 0
-298 -322 0
-298 -323 0
-298 -324 0
-298 -325 0
-298 -326 0
-298 -327 0
-298 -328 0
-298 -329 0
-298 -330 0
-299 -300 0
-299 -301 0
-299 -302 0
-299 -303 0
-299 -304 0
-299 -305 0
-299 -306 0
-299 -307 0
-299 -308 0
-299 -309 0
-299 -310 0
-299 -311 0
-299 -312 0
-299 -313 0
-299 -314 0
-299 -315 0
-299 -316 0
-299 -317 0
-299 -318 0
-299 -319 0
-299 -320 0
-299 -321 0
-299 -322 0
-299 -323 0
-299 -324 0
-299 -325 0
-299 -326 0
-299 -327 0
-299 -328 0
-299 -329 0
-299 -330 0
-300 -301 0
-300 -302 0
-300 -303 0
-300 -304 0
-300 -305 0
-300 -306 0
-300 -307 0
-300 -308 0
-300 -309 0
-300 -310 0
-300 -311 0
-300 -312 0
-300 -313 0
-300 -314 0
-300 -315 0
-300 -316 0
-300 -317 0
-300 -318 0
-300 -319 0
-300 -320 0
-300 -321 0
-300 -322 0
-300 -323 0
-300 -324 0
-300 -325 0
-300 -326 0
-300 -327 0
-300 -328 0
-300 -329 0
-300 -330 0
-301 -302 0
-301 -303 0
-301 -304 0
-301 -305 0
-301 -306 0
-301 -307 0
-301 -308 0
-301 -309 0
-301 -310 0
-301 -311 0
-301 -312 0
-301 -313 0
-301 -314 0
-301 -315 0
-301 -316 0
-301 -317 0
-301 -318 0
-301 -319 0
-301 -320 0
-301 -321 0
-301 -322 0
-301 -323 0
-301 -324 0
-301 -325 0
-301 -326 0
-301 -327 0
-301 -328 0
-301 -329 0
-301 -330 0
-302 -303 0
-302 -304 0
-302 -305 0
-302 -306 0
-302 -307 0
-302 -308 0
-302 -309 0
-302 -310 0
-302 -311 0
-302 -312 0
-302 -313 0
-302 -314 0
-302 -315 0
-302 -316 0
-302 -317 0
-302 -318 0
-302 -319 0
-302 -320 0
-302 -321 0
-302 -322 0
-302 -323 0
-302 -324 0
-302 -325 0
-302 -326 0
-302 -327 0
-302 -328 0
-302 -329 0
-302 -330 0
-303 -304 0
-303 -305 0
-303 -306 0
-303 -307 0
-303 -308 0
-303 -309 0
-303 -310 0
-303 -311 0
-303 -312 0
-303 -313 0
-303 -314 0
-303 -315 0
-303 -316 0
-303 -317 0
-303 -318 0
-303 -319 0
-303 -320 0
-303 -321 0
-303 -322 0
-303 -323 0
-303 -324 0
-303 -325 0
-303 -326 0
-303 -327 0
-303 -328 0
-303 -329 0
-303 -330 0
-304 -305 0
-304 -306 0
-304 -307 0
-304 -308 0
-304 -309 0
-304 -310 0
-304 -311 0
-304 -312 0
-304 -313 0
-304 -314 0
-304 -315 0
-304 -316 0
-304 -317 0
-304 -318 0
-304 -319 0
-304 -320 0
-304 -321 0
-304 -322 0
-304 -323 0
-304 -324 0
-304 -325 0
-304 -326 0
-304 -327 0
-304 -328 0
-304 -329 0
-304 -330 0
-305 -306 0
-305 -307 0
-305 -308 0
-305 -309 0
-305 -310 0
-305 -311 0
-305 -312 0
-305 -313 0
-305 -314 0
-305 -315 0
-305 -316 0
-305 -317 0
-305 -318 0
-305 -319 0
-305 -320 0
-305 -321 0
-305 -322 0
-305 -323 0
-305 -324 0
-305 -325 0
-305 -326 0
-305 -327 0
-305 -328 0
-305 -329 0
-305 -330 0
-306 -307 0
-306 -308 0
-306 -309 0
-306 -310 0
-306 -311 0
-306 -312 0
-306 -313 0
-306 -314 0
-306 -315 0
-306 -316 0
-306 -317 0
-306 -318 0
-306 -319 0
-306 -320 0
-306 -321 0
-306 -322 0
-306 -323 0
-306 -324 0
-306 -325 0
-306 -326 0
-306 -327 0
-306 -328 0
-306 -329 0
-306 -330 0
-307 -308 0
-307 -309 0
-307 -310 0
-307 -311 0
-307 -312 0
-307 -313 0
-307 -314 0
-307 -315 0
-307 -316 0
-307 -317 0
-307 -318 0
-307 -319 0
-307 -320 0
-307 -321 0
-307 -322 0
-307 -323 0
-307 -324 0
-307 -325 0
-307 -326 0
-307 -327 0
-307 -328 0
-307 -329 0
-307 -330 0
-308 -309 0
-308 -310 0
-308 -311 0
-308 -312 0
-308 -313 0
-308 -314 0
-308 -315 0
-308 -316 0
-308 -317 0
-308 -318 0
-308 -319 0
-308 -320 0
-308 -321 0
-308 -322 0
-308 -323 0
-308 -324 0
-308 -325 0
-308 -326 0
-308 -327 0
-308 -328 0
-308 -329 0
-308 -330 0
-309 -310 0
-309 -311 0
-309 -312 0
-309 -313 0
-309 -314 0
-309 -315 0
-309 -316 0
-309 -317 0
-309 -318 0
-309 -319 0
-309 -320 0
-309 -321 0
-309 -322 0
-309 -323 0
-309 -324 0
-309 -325 0
-309 -326 0
-309 -327 0
-309 -328 0
-309 -329 0
-309 -330 0
-310 -311 0
-310 -312 0
-310 -313 0
-310 -314 0
-310 -315 0
-310 -316 0
-310 -317 0
-310 -318 0
-310 -319 0
-310 -320 0
-310 -321 0
-310 -322 0
-310 -323 0
-310 -324 0
-310 -325 0
-310 -326 0
-310 -327 0
-310 -328 0
-310 -329 0
-310 -330 0
-311 -312 0
-311 -313 0
-311 -314 0
-311 -315 0
-311 -316 0
-311 -317 0
-311 -318 0
-311 -319 0
-311 -320 0
-311 -321 0
-311 -322 0
-311 -323 0
-311 -324 0
-311 -325 0
-311 -326 0
-311 -327 0
-311 -328 0
-311 -329 0
-311 -330 0
-312 -313 0
-312 -314 0
-312 -315 0
-312 -316 0
-312 -317 0
-312 -318 0
-312 -319 0
-312 -320 0
-312 -321 0
-312 -322 0
-312 -323 0
-312 -324 0
-312 -325 0
-312 -326 0
-312 -327 0
-312 -328 0
-312 -329 0
-312 -330 0
-313 -314 0
-313 -315 0
-313 -316 0
-313 -317 0
-313 -318 0
-313 -319 0
-313 -320 0
-313 -321 0
-313 -322 0
-313 -323 0
-313 -324 0
-313 -325 0
-313 -326 0
-313 -327 0
-313 -328 0
-313 -329 0
-313 -330 0
-314 -315 0
-314 -316 0
-314 -317 0
-314 -318 0
-314 -319 0
-314 -320 0
-314 -321 0
-314 -322 0
-314 -323 0
-314 -324 0
-314 -325 0
-314 -326 0
-314 -327 0
-314 -328 0
-314 -329 0
-314 -330 0
-315 -316 0
-315 -317 0
-315 -318 0
-315 -319 0
-315 -320 0
-315 -321 0
-315 -322 0
-315 -323 0
-315 -324 0
-315 -325 0
-315 -326 0
-315 -327 0
-315 -328 0
-315 -329 0
-315 -330 0
-316 -317 0
-316 -318 0
-316 -319 0
-316 -320 0
-316 -321 0
-316 -322 0
-316 -323 0
-316 -324 0
-316 -325 0
-316 -326 0
-316 -327 0
-316 -328 0
-316 -329 0
-316 -330 0
-317 -318 0
-317 -319 0
-317 -320 0
-317 -321 0
-317 -322 0
-317 -323 0
-317 -324 0
-317 -325 0
-317 -326 0
-317 -327 0
-317 -328 0
-317 -329 0
-317 -330 0
-318 -319 0
-318 -320 0
-318 -321 0
-318 -322 0
-318 -323 0
-318 -324 0
-318 -325 0
-318 -326 0
-318 -327 0
-318 -328 0
-318 -329 0
-318 -330 0
-319 -320 0
-319 -321 0
-319 -322 0
-319 -323 0
-319 -324 0
-319 -325 0
-319 -326 0
-319 -327 0
-319 -328 0
-319 -329 0
-319 -330 0
-320 -321 0
-320 -322 0
-320 -323 0
-320 -324 0
-320 -325 0
-320 -326 0
-320 -327 0
-320 -328 0
-320 -329 0
-320 -330 0
-321 -322 0
-321 -323 0
-321 -324 0
-321 -325 0
-321 -326 0
-321 -327 0
-321 -328 0
-321 -329 0
-321 -330 0
-322 -323 0
-322 -324 0
-322 -325 0
-322 -326 0
-322 -327 0
-322 -328 0
-322 -329 0
-322 -330 0
-323 -324 0
-323 -325 0
-323 -326 0
-323 -327 0
-323 -328 0
-323 -329 0
-323 -330 0
-324 -325 0
-324 -326 0
-324 -327 0
-324 -328 0
-324 -329 0
-324 -330 0
-325 -326 0
-325 -327 0
-325 -328 0
-325 -329 0
-325 -330 0
-326 -327 0
-326 -328 0
-326 -329 0
-326 -330 0
-327 -328 0
-327 -329 0
-327 -330 0
-328 -329 0
-328 -330 0
-329 -330 0
331 332 333 334 335 336 337 338 339 340 341 342 343 344 345 346 347 348 349 350 351 352 353 354 355 356 357 358 359 360 361 362 363 364 365 366 367 368 369 370 371 372 373 374 375 376 377 378 379 380 381 382 383 384 385 386 387 388 389 390 391 392 393 394 395 396 397 398 399 400 401 402 403 404 405 406 407 408 409 410 411 412 413 414 0
-331 -332 0
-331 -333 0
-331 -334 0
-331 -335 0
-331 -336 0
-331 -337 0
-331 -338 0
-331 -339 0
-331 -340 0
-331 -341 0
-331 -342 0
-331 -343 0
-331 -344 0
-331 -345 0
-331 -346 0
-331 -347 0
-331 -348 0
-331 -349 0
-331 -350 0
-331 -351 0
-331 -352 0
-331 -353 0
-331 -354 0
-331 -355 0
-331 -356 0
-331 -357 0
-331 -358 0
-331 -359 0
-331 -360 0
-331 -361 0
-331 -362 0
-331 -363 0
-331 -364 0
-331 -365 0
-331 -366 0
-331 -367 0
-331 -368 0
-331 -369 0
-331 -370 0
-331 -371 0
-331 -372 0
-331 -373 0
-331 -374 0
-331 -375 0
-331 -376 0
-331 -377 0
-331 -378 0
-331 -379 0
-331 -380 0
-331 -381 0
-331 -382 0
-331 -383 0
-331 -384 0
-331 -385 0
-331 -386 0
-331 -387 0
-331 -388 0
-331 -389 0
-331 -390 0
-331 -391 0
-331 -392 0
-331 -393 0
-331 -394 0
-331 -395 0
-331 -396 0
-331 -397 0
-331 -398 0
-331 -399 0
-331 -400 0
-331 -401 0
-331 -402 0
-331 -403 0
-331 -404 0
-331 -405 0
-331 -406 0
-331 -407 0
-331 -408 0
-331 -409 0
-331 -410 0
-331 -411 0
-331 -412 0
-331 -413 0
-331 -414 0
-332 -333 0
-332 -334 0
-332 -335 0
-332 -336 0
-332 -337 0
-332 -338 0
-332 -339 0
-332 -340 0
-332 -341 0
-332 -342 0
-332 -343 0
-332 -344 0
-332 -345 0
-332 -346 0
-332 -347 0
-332 -348 0
-332 -349 0
-332 -350 0
-332 -351 0
-332 -352 0
-332 -353 0
-332 -354 0
-332 -355 0
-332 -356 0
-332 -357 0
-332 -358 0
-332 -359 0
-332 -360 0
-332 -361 0
-332 -362 0
-332 -363 0
-332 -364 0
-332 -365 0
-332 -366 0
-332 -367 0
-332 -368 0
-332 -369 0
-332 -370 0
-332 -371 0
-332 -372 0
-332 -373 0
-332 -374 0
-332 -375 0
-332 -376 0
-332 -377 0
-332 -378 0
-332 -379 0
-332 -380 0
-332 -381 0
-332 -382 0
-332 -383 0
-332 -384 0
-332 -385 0
-332 -386 0
-332 -387 0
-332 -388 0
-332 -389 0
-332 -390 0
-332 -391 0
-332 -392 0
-332 -393 0
-332 -394 0
-332 -395 0
-332 -396 0
-332 -397 0
-332 -398 0
-332 -399 0
-332 -400 0
-332 -401 0
-332 -402 0
-332 -403 0
-332 -404 0
-332 -405 0
-332 -406 0
-332 -407 0
-332 -408 0
-332 -409 0
-332 -410 0
-332 -411 0
-332 -412 0
-332 -413 0
-332 -414 0
-333 -334 0
-333 -335 0
-333 -336 0
-333 -337 0
-333 -338 0
-333 -339 0
-333 -340 0
-333 -341 0
-333 -342 0
-333 -343 0
-333 -344 0
-333 -345 0
-333 -346 0
-333 -347 0
-333 -348 0
-333 -349 0
-333 -350 0
-333 -351 0
-333 -352 0
-333 -353 0
-333 -354 0
-333 -355 0
-333 -356 0
-333 -357 0
-333 -358 0
-333 -359 0
-333 -360 0
-333 -361 0
-333 -362 0
-333 -363 0
-333 -364 0
-333 -365 0
-333 -366 0
-333 -367 0
-333 -368 0
-333 -369 0
-333 -370 0
-333 -371 0
-333 -372 0
-333 -373 0
-333 -374 0
-333 -375 0
-333 -376 0
-333 -377 0
-333 -378 0
-333 -379 0
-333 -380 0
-333 -381 0
-333 -382 0
-333 -383 0
-333 -384 0
-333 -385 0
-333 -386 0
-333 -387 0
-333 -388 0
-333 -389 0
-333 -390 0
-333 -391 0
-333 -392 0
-333 -393 0
-333 -394 0
-333 -395 0
-333 -396 0
-333 -397 0
-333 -398 0
-333 -399 0
-333 -400 0
-333 -401 0
-333 -402 0
-333 -403 0
-333 -404 0
-333 -405 0
-333 -406 0
-333 -407 0
-333 -408 0
-333 -409 0
-333 -410 0
-333 -411 0
-333 -412 0
-333 -413 0
-333 -414 0
-334 -335 0
-334 -336 0
-334 -337 0
-334 -338 0
-334 -339 0
-334 -340 0
-334 -341 0
-334 -342 0
-334 -343 0
-334 -344 0
-334 -345 0
-334 -346 0
-334 -347 0
-334 -348 0
-334 -349 0
-334 -350 0
-334 -351 0
-334 -352 0
-334 -353 0
-334 -354 0
-334 -355 0
-334 -356 0
-334 -357 0
-334 -358 0
-334 -359 0
-334 -360 0
-334 -361 0
-334 -362 0
-334 -363 0
-334 -364 0
-334 -365 0
-334 -366 0
-334 -367 0
-334 -368 0
-334 -369 0
-334 -370 0
-334 -371 0
-334 -372 0
-334 -373 0
-334 -374 0
-334 -375 0
-334 -376 0
-334 -377 0
-334 -378 0
-334 -379 0
-334 -380 0
-334 -381 0
-334 -382 0
-334 -383 0
-334 -384 0
-334 -385 0
-334 -386 0
-334 -387 0
-334 -388 0
-334 -389 0
-334 -390 0
-334 -391 0
-334 -392 0
-334 -393 0
-334 -394 0
-334 -395 0
-334 -396 0
-334 -397 0
-334 -398 0
-334 -399 0
-334 -400 0
-334 -401 0
-334 -402 0
-334 -403 0
-334 -404 0
-334 -405 0
-334 -406 0
-334 -407 0
-334 -408 0
-334 -409 0
-334 -410 0
-334 -411 0
-334 -412 0
-334 -413 0
-334 -414 0
-335 -336 0
-335 -337 0
-335 -338 0
-335 -339 0
-335 -340 0
-335 -341 0
-335 -342 0
-335 -343 0
-335 -344 0
-335 -345 0
-335 -346 0
-335 -347 0
-335 -348 0
-335 -349 0
-335 -350 0
-335 -351 0
-335 -352 0
-335 -353 0
-335 -354 0
-335 -355 0
-335 -356 0
-335 -357 0
-335 -358 0
-335 -359 0
-335 -360 0
-335 -361 0
-335 -362 0
-335 -363 0
-335 -364 0
-335 -365 0
-335 -366 0
-335 -367 0
-335 -368 0
-335 -369 0
-335 -370 0
-335 -371 0
-335 -372 0
-335 -373 0
-335 -374 0
-335 -375 0
-335 -376 0
-335 -377 0
-335 -378 0
-335 -379 0
-335 -380 0
-335 -381 0
-335 -382 0
-335 -383 0
-335 -384 0
-335 -385 0
-335 -386 0
-335 -387 0
-335 -388 0
-335 -389 0
-335 -390 0
-335 -391 0
-335 -392 0
-335 -393 0
-335 -394 0
-335 -395 0
-335 -396 0
-335 -397 0
-335 -398 0
-335 -399 0
-335 -400 0
-335 -401 0
-335 -402 0
-335 -403 0
-335 -404 0
-335 -405 0
-335 -406 0
-335 -407 0
-335 -408 0
-335 -409 0
-335 -410 0
-335 -411 0
-335 -412 0
-335 -413 0
-335 -414 0
-336 -337 0
-336 -338 0
-336 -339 0
-336 -340 0
-336 -341 0
-336 -342 0
-336 -343 0
-336 -344 0
-336 -345 0
-336 -346 0
-336 -347 0
-336 -348 0
-336 -349 0
-336 -350 0
-336 -351 0
-336 -352 0
-336 -353 0
-336 -354 0
-336 -355 0
-336 -356 0
-336 -357 0
-336 -358 0
-336 -359 0
-336 -360 0
-336 -361 0
-336 -362 0
-336 -363 0
-336 -364 0
-336 -365 0
-336 -366 0
-336 -367 0
-336 -368 0
-336 -369 0
-336 -370 0
-336 -371 0
-336 -372 0
-336 -373 0
-336 -374 0
-336 -375 0
-336 -376 0
-336 -377 0
-336 -378 0
-336 -379 0
-336 -380 0
-336 -381 0
-336 -382 0
-336 -383 0
-336 -384 0
-336 -385 0
-336 -386 0
-336 -387 0
-336 -388 0
-336 -389 0
-336 -390 0
-336 -391 0
-336 -392 0
-336 -393 0
-336 -394 0
-336 -395 0
-336 -396 0
-336 -397 0
-336 -398 0
-336 -399 0
-336 -400 0
-336 -401 0
-336 -402 0
-336 -403 0
-336 -404 0
-336 -405 0
-336 -406 0
-336 -407 0
-336 -408 0
-336 -409 0
-336 -410 0
-336 -411 0
-336 -412 0
-336 -413 0
-336 -414 0
-337 -338 0
-337 -339 0
-337 -340 0
-337 -341 0
-337 -342 0
-337 -343 0
-337 -344 0
-337 -345 0
-337 -346 0
-337 -347 0
-337 -348 0
-337 -349 0
-337 -350 0
-337 -351 0
-337 -352 0
-337 -353 0
-337 -354 0
-337 -355 0
-337 -356 0
-337 -357 0
-337 -358 0
-337 -359 0
-337 -360 0
-337 -361 0
-337 -362 0
-337 -363 0
-337 -364 0
-337 -365 0
-337 -366 0
-337 -367 0
-337 -368 0
-337 -369 0
-337 -370 0
-337 -371 0
-337 -372 0
-337 -373 0
-337 -374 0
-337 -375 0
-337 -376 0
-337 -377 0
-337 -378 0
-337 -379 0
-337 -380 0
-337 -381 0
-337 -382 0
-337 -383 0
-337 -384 0
-337 -385 0
-337 -386 0
-337 -387 0
-337 -388 0
-337 -389 0
-337 -390 0
-337 -391 0
-337 -392 0
-337 -393 0
-337 -394 0
-337 -395 0
-337 -396 0
-337 -397 0
-337 -398 0
-337 -399 0
-337 -400 0
-337 -401 0
-337 -402 0
-337 -403 0
-337 -404 0
-337 -405 0
-337 -406 0
-337 -407 0
-337 -408 0
-337 -409 0
-337 -410 0
-337 -411 0
-337 -412 0
-337 -413 0
-337 -414 0
-338 -339 0
-338 -340 0
-338 -341 0
-338 -342 0
-338 -343 0
-338 -344 0
-338 -345 0
-338 -346 0
-338 -347 0
-338 -348 0
-338 -349 0
-338 -350 0
-338 -351 0
-338 -352 0
-338 -353 0
-338 -354 0
-338 -355 0
-338 -356 0
-338 -357 0
-338 -358 0
-338 -359 0
-338 -360 0
-338 -361 0
-338 -362 0
-338 -363 0
-338 -364 0
-338 -365 0
-338 -366 0
-338 -367 0
-338 -368 0
-338 -369 0
-338 -370 0
-338 -371 0
-338 -372 0
-338 -373 0
-338 -374 0
-338 -375 0
-338 -376 0
-338 -377 0
-338 -378 0
-338 -379 0
-338 -380 0
-338 -381 0
-338 -382 0
-338 -383 0
-338 -384 0
-338 -385 0
-338 -386 0
-338 -387 0
-338 -388 0
-338 -389 0
-338 -390 0
-338 -391 0
-338 -392 0
-338 -393 0
-338 -394 0
-338 -395 0
-338 -396 0
-338 -397 0
-338 -398 0
-338 -399 0
-338 -400 0
-338 -401 0
-338 -402 0
-338 -403 0
-338 -404 0
-338 -405 0
-338 -406 0
-338 -407 0
-338 -408 0
-338 -409 0
-338 -410 0
-338 -411 0
-338 -412 0
-338 -413 0
-338 -414 0
-339 -340 0
-339 -341 0
-339 -342 0
-339 -343 0
-339 -344 0
-339 -345 0
-339 -346 0
-339 -347 0
-339 -348 0
-339 -349 0
-339 -350 0
-339 -351 0
-339 -352 0
-339 -353 0
-339 -354 0
-339 -355 0
-339 -356 0
-339 -357 0
-339 -358 0
-339 -359 0
-339 -360 0
-339 -361 0
-339 -362 0
-339 -363 0
-339 -364 0
-339 -365 0
-339 -366 0
-339 -367 0
-339 -368 0
-339 -369 0
-339 -370 0
-339 -371 0
-339 -372 0
-339 -373 0
-339 -374 0
-339 -375 0
-339 -376 0
-339 -377 0
-339 -378 0
-339 -379 0
-339 -380 0
-339 -381 0
-339 -382 0
-339 -383 0
-339 -384 0
-339 -385 0
-339 -386 0
-339 -387 0
-339 -388 0
-339 -389 0
-339 -390 0
-339 -391 0
-339 -392 0
-339 -393 0
-339 -394 0
-339 -395 0
-339 -396 0
-339 -397 0
-339 -398 0
-339 -399 0
-339 -400 0
-339 -401 0
-339 -402 0
-339 -403 0
-339 -404 0
-339 -405 0
-339 -406 0
-339 -407 0
-339 -408 0
-339 -409 0
-339 -410 0
-339 -411 0
-339 -412 0
-339 -413 0
-339 -414 0
-340 -341 0
-340 -342 0
-340 -343 0
-340 -344 0
-340 -345 0
-340 -346 0
-340 -347 0
-340 -348 0
-340 -349 0
-340 -350 0
-340 -351 0
-340 -352 0
-340 -353 0
-340 -354 0
-340 -355 0
-340 -356 0
-340 -357 0
-340 -358 0
-340 -359 0
-340 -360 0
-340 -361 0
-340 -362 0
-340 -363 0
-340 -364 0
-340 -365 0
-340 -366 0
-340 -367 0
-340 -368 0
-340 -369 0
-340 -370 0
-340 -371 0
-340 -372 0
-340 -373 0
-340 -374 0
-340 -375 0
-340 -376 0
-340 -377 0
-340 -378 0
-340 -379 0
-340 -380 0
-340 -381 0
-340 -382 0
-340 -383 0
-340 -384 0
-340 -385 0
-340 -386 0
-340 -387 0
-340 -388 0
-340 -389 0
-340 -390 0
-340 -391 0
-340 -392 0
-340 -393 0
-340 -394 0
-340 -395 0
-340 -396 0
-340 -397 0
-340 -398 0
-340 -399 0
-340 -400 0
-340 -401 0
-340 -402 0
-340 -403 0
-340 -404 0
-340 -405 0
-340 -406 0
-340 -407 0
-340 -408 0
-340 -409 0
-340 -410 0
-340 -411 0
-340 -412 0
-340 -413 0
-340 -414 0
-341 -342 0
-341 -343 0
-341 -344 0
-341 -345 0
-341 -346 0
-341 -347 0
-341 -348 0
-341 -349 0
-341 -350 0
-341 -351 0
-341 -352 0
-341 -353 0
-341 -354 0
-341 -355 0
-341 -356 0
-341 -357 0
-341 -358 0
-341 -359 0
-341 -360 0
-341 -361 0
-341 -362 0
-341 -363 0
-341 -364 0
-341 -365 0
-341 -366 0
-341 -367 0
-341 -368 0
-341 -369 0
-341 -370 0
-341 -371 0
-341 -372 0
-341 -373 0
-341 -374 0
-341 -375 0
-341 -376 0
-341 -377 0
-341 -378 0
-341 -379 0
-341 -380 0
-341 -381 0
-341 -382 0
-341 -383 0
-341 -384 0
-341 -385 0
-341 -386 0
-341 -387 0
-341 -388 0
-341 -389 0
-341 -390 0
-341 -391 0
-341 -392 0
-341 -393 0
-341 -394 0
-341 -395 0
-341 -396 0
-341 -397 0
-341 -398 0
-341 -399 0
-341 -400 0
-341 -401 0
-341 -402 0
-341 -403 0
-341 -404 0
-341 -405 0
-341 -406 0
-341 -407 0
-341 -408 0
-341 -409 0
-341 -410 0
-341 -411 0
-341 -412 0
-341 -413 0
-341 -414 0
-342 -343 0
-342 -344 0
-342 -345 0
-342 -346 0
-342 -347 0
-342 -348 0
-342 -349 0
-342 -350 0
-342 -351 0
-342 -352 0
-342 -353 0
-342 -354 0
-342 -355 0
-342 -356 0
-342 -357 0
-342 -358 0
-342 -359 0
-342 -360 0
-342 -361 0
-342 -362 0
-342 -363 0
-342 -364 0
-342 -365 0
-342 -366 0
-342 -367 0
-342 -368 0
-342 -369 0
-342 -370 0
-342 -371 0
-342 -372 0
-342 -373 0
-342 -374 0
-342 -375 0
-342 -376 0
-342 -377 0
-342 -378 0
-342 -379 0
-342 -380 0
-342 -381 0
-342 -382 0
-342 -383 0
-342 -384 0
-342 -385 0
-342 -386 0
-342 -387 0
-342 -388 0
-342 -389 0
-342 -390 0
-342 -391 0
-342 -392 0
-342 -393 0
-342 -394 0
-342 -395 0
-342 -396 0
-342 -397 0
-342 -398 0
-342 -399 0
-342 -400 0
-342 -401 0
-342 -402 0
-342 -403 0
-342 -404 0
-342 -405 0
-342 -406 0
-342 -407 0
-342 -408 0
-342 -409 0
-342 -410 0
-342 -411 0
-342 -412 0
-342 -413 0
-342 -414 0
-343 -344 0
-343 -345 0
-343 -346 0
-343 -347 0
-343 -348 0
-343 -349 0
-343 -350 0
-343 -351 0
-343 -352 0
-343 -353 0
-343 -354 0
-343 -355 0
-343 -356 0
-343 -357 0
-343 -358 0
-343 -359 0
-343 -360 0
-343 -361 0
-343 -362 0
-343 -363 0
-343 -364 0
-343 -365 0
-343 -366 0
-343 -367 0
-343 -368 0
-343 -369 0
-343 -370 0
-343 -371 0
-343 -372 0
-343 -373 0
-343 -374 0
-343 -375 0
-343 -376 0
-343 -377 0
-343 -378 0
-343 -379 0
-343 -380 0
-343 -381 0
-343 -382 0
-343 -383 0
-343 -384 0
-343 -385 0
-343 -386 0
-343 -387 0
-343 -388 0
-343 -389 0
-343 -390 0
-343 -391 0
-343 -392 0
-343 -393 0
-343 -394 0
-343 -395 0
-343 -396 0
-343 -397 0
-343 -398 0
-343 -399 0
-343 -400 0
-343 -401 0
-343 -402 0
-343 -403 0
-343 -404 0
-343 -405 0
-343 -406 0
-343 -407 0
-343 -408 0
-343 -409 0
-343 -410 0
-343 -411 0
-343 -412 0
-343 -413 0
-343 -414 0
-344 -345 0
-344 -346 0
-344 -347 0
-344 -348 0
-344 -349 0
-344 -350 0
-344 -351 0
-344 -352 0
-344 -353 0
-344 -354 0
-344 -355 0
-344 -356 0
-344 -357 0
-344 -358 0
-344 -359 0
-344 -360 0
-344 -361 0
-344 -362 0
-344 -363 0
-344 -364 0
-344 -365 0
-344 -366 0
-344 -367 0
-344 -368 0
-344 -369 0
-344 -370 0
-344 -371 0
-344 -372 0
-344 -373 0
-344 -374 0
-344 -375 0
-344 -376 0
-344 -377 0
-344 -378 0
-344 -379 0
-344 -380 0
-344 -381 0
-344 -382 0
-344 -383 0
-344 -384 0
-344 -385 0
-344 -386 0
-344 -387 0
-344 -388 0
-344 -389 0
-344 -390 0
-344 -391 0
-344 -392 0
-344 -393 0
-344 -394 0
-344 -395 0
-344 -396 0
-344 -397 0
-344 -398 0
-344 -399 0
-344 -400 0
-344 -401 0
-344 -402 0
-344 -403 0
-344 -404 0
-344 -405 0
-344 -406 0
-344 -407 0
-344 -408 0
-344 -409 0
-344 -410 0
-344 -411 0
-344 -412 0
-344 -413 0
-344 -414 0
-345 -346 0
-345 -347 0
-345 -348 0
-345 -349 0
-345 -350 0
-345 -351 0
-345 -352 0
-345 -353 0
-345 -354 0
-345 -355 0
-345 -356 0
-345 -357 0
-345 -358 0
-345 -359 0
-345 -360 0
-345 -361 0
-345 -362 0
-345 -363 0
-345 -364 0
-345 -365 0
-345 -366 0
-345 -367 0
-345 -368 0
-345 -369 0
-345 -370 0
-345 -371 0
-345 -372 0
-345 -373 0
-345 -374 0
-345 -375 0
-345 -376 0
-345 -377 0
-345 -378 0
-345 -379 0
-345 -380 0
-345 -381 0
-345 -382 0
-345 -383 0
-345 -384 0
-345 -385 0
-345 -386 0
-345 -387 0
-345 -388 0
-345 -389 0
-345 -390 0
-345 -391 0
-345 -392 0
-345 -393 0
-345 -394 0
-345 -395 0
-345 -396 0
-345 -397 0
-345 -398 0
-345 -399 0
-345 -400 0
-345 -401 0
-345 -402 0
-345 -403 0
-345 -404 0
-345 -405 0
-345 -406 0
-345 -407 0
-345 -408 0
-345 -409 0
-345 -410 0
-345 -411 0
-345 -412 0
-345 -413 0
-345 -414 0
-346 -347 0
-346 -348 0
-346 -349 0
-346 -350 0
-346 -351 0
-346 -352 0
-346 -353 0
-346 -354 0
-346 -355 0
-346 -356 0
-346 -357 0
-346 -358 0
-346 -359 0
-346 -360 0
-346 -361 0
-346 -362 0
-346 -363 0
-346 -364 0
-346 -365 0
-346 -366 0
-346 -367 0
-346 -368 0
-346 -369 0
-346 -370 0
-346 -371 0
-346 -372 0
-346 -373 0
-346 -374 0
-346 -375 0
-346 -376 0
-346 -377 0
-346 -378 0
-346 -379 0
-346 -380 0
-346 -381 0
-346 -382 0
-346 -383 0
-346 -384 0
-346 -385 0
-346 -386 0
-346 -387 0
-346 -388 0
-346 -389 0
-346 -390 0
-346 -391 0
-346 -392 0
-346 -393 0
-346 -394 0
-346 -395 0
-346 -396 0
-346 -397 0
-346 -398 0
-346 -399 0
-346 -400 0
-346 -401 0
-346 -402 0
-346 -403 0
-346 -404 0
-346 -405 0
-346 -406 0
-346 -407 0
-346 -408 0
-346 -409 0
-346 -410 0
-346 -411 0
-346 -412 0
-346 -413 0
-346 -414 0
-347 -348 0
-347 -349 0
-347 -350 0
-347 -351 0
-347 -352 0
-347 -353 0
-347 -354 0
-347 -355 0
-347 -356 0
-347 -357 0
-347 -358 0
-347 -359 0
-347 -360 0
-347 -361 0
-347 -362 0
-347 -363 0
-347 -364 0
-347 -365 0
-347 -366 0
-347 -367 0
-347 -368 0
-347 -369 0
-347 -370 0
-347 -371 0
-347 -372 0
-347 -373 0
-347 -374 0
-347 -375 0
-347 -376 0
-347 -377 0
-347 -378 0
-347 -379 0
-347 -380 0
-347 -381 0
-347 -382 0
-347 -383 0
-347 -384 0
-347 -385 0
-347 -386 0
-347 -387 0
-347 -388 0
-347 -389 0
-347 -390 0
-347 -391 0
-347 -392 0
-347 -393 0
-347 -394 0
-347 -395 0
-347 -396 0
-347 -397 0
-347 -398 0
-347 -399 0
-347 -400 0
-347 -401 0
-347 -402 0
-347 -403 0
-347 -404 0
-347 -405 0
-347 -406 0
-347 -407 0
-347 -408 0
-347 -409 0
-347 -410 0
-347 -411 0
-347 -412 0
-347 -413 0
-347 -414 0
-348 -349 0
-348 -350 0
-348 -351 0
-348 -352 0
-348 -353 0
-348 -354 0
-348 -355 0
-348 -356 0
-348 -357 0
-348 -358 0
-348 -359 0
-348 -360 0
-348 -361 0
-348 -362 0
-348 -363 0
-348 -364 0
-348 -365 0
-348 -366 0
-348 -367 0
-348 -368 0
-348 -369 0
-348 -370 0
-348 -371 0
-348 -372 0
-348 -373 0
-348 -374 0
-348 -375 0
-348 -376 0
-348 -377 0
-348 -378 0
-348 -379 0
-348 -380 0
-348 -381 0
-348 -382 0
-348 -383 0
-348 -384 0
-348 -385 0
-348 -386 0
-348 -387 0
-348 -388 0
-348 -389 0
-348 -390 0
-348 -391 0
-348 -392 0
-348 -393 0
-348 -394 0
-348 -395 0
-348 -396 0
-348 -397 0
-348 -398 0
-348 -399 0
-348 -400 0
-348 -401 0
-348 -402 0
-348 -403 0
-348 -404 0
-348 -405 0
-348 -406 0
-348 -407 0
-348 -408 0
-348 -409 0
-348 -410 0
-348 -411 0
-348 -412 0
-348 -413 0
-348 -414 0
-349 -350 0
-349 -351 0
-349 -352 0
-349 -353 0
-349 -354 0
-349 -355 0
-349 -356 0
-349 -357 0
-349 -358 0
-349 -359 0
-349 -360 0
-349 -361 0
-349 -362 0
-349 -363 0
-349 -364 0
-349 -365 0
-349 -366 0
-349 -367 0
-349 -368 0
-349 -369 0
-349 -370 0
-349 -371 0
-349 -372 0
-349 -373 0
-349 -374 0
-349 -375 0
-349 -376 0
-349 -377 0
-349 -378 0
-349 -379 0
-349 -380 0
-349 -381 0
-349 -382 0
-349 -383 0
-349 -384 0
-349 -385 0
-349 -386 0
-349 -387 0
-349 -388 0
-349 -389 0
-349 -390 0
-349 -391 0
-349 -392 0
-349 -393 0
-349 -394 0
-349 -395 0
-349 -396 0
-349 -397 0
-349 -398 0
-349 -399 0
-349 -400 0
-349 -401 0
-349 -402 0
-349 -403 0
-349 -404 0
-349 -405 0
-349 -406 0
-349 -407 0
-349 -408 0
-349 -409 0
-349 -410 0
-349 -411 0
-349 -412 0
-349 -413 0
-349 -414 0
-350 -351 0
-350 -352 0
-350 -353 0
-350 -354 0
-350 -355 0
-350 -356 0
-350 -357 0
-350 -358 0
-350 -359 0
-350 -360 0
-350 -361 0
-350 -362 0
-350 -363 0
-350 -364 0
-350 -365 0
-350 -366 0
-350 -367 0
-350 -368 0
-350 -369 0
-350 -370 0
-350 -371 0
-350 -372 0
-350 -373 0
-350 -374 0
-350 -375 0
-350 -376 0
-350 -377 0
-350 -378 0
-350 -379 0
-350 -380 0
-350 -381 0
-350 -382 0
-350 -383 0
-350 -384 0
-350 -385 0
-350 -386 0
-350 -387 0
-350 -388 0
-350 -389 0
-350 -390 0
-350 -391 0
-350 -392 0
-350 -393 0
-350 -394 0
-350 -395 0
-350 -396 0
-350 -397 0
-350 -398 0
-350 -399 0
-350 -400 0
-350 -401 0
-350 -402 0
-350 -403 0
-350 -404 0
-350 -405 0
-350 -406 0
-350 -407 0
-350 -408 0
-350 -409 0
-350 -410 0
-350 -411 0
-350 -412 0
-350 -413 0
-350 -414 0
-351 -352 0
-351 -353 0
-351 -354 0
-351 -355 0
-351 -356 0
-351 -357 0
-351 -358 0
-351 -359 0
-351 -360 0
-351 -361 0
-351 -362 0
-351 -363 0
-351 -364 0
-351 -365 0
-351 -366 0
-351 -367 0
-351 -368 0
-351 -369 0
-351 -370 0
-351 -371 0
-351 -372 0
-351 -373 0
-351 -374 0
-351 -375 0
-351 -376 0
-351 -377 0
-351 -378 0
-351 -379 0
-351 -380 0
-351 -381 0
-351 -382 0
-351 -383 0
-351 -384 0
-351 -385 0
-351 -386 0
-351 -387 0
-351 -388 0
-351 -389 0
-351 -390 0
-351 -391 0
-351 -392 0
-351 -393 0
-351 -394 0
-351 -395 0
-351 -396 0
-351 -397 0
-351 -398 0
-351 -399 0
-351 -400 0
-351 -401 0
-351 -402 0
-351 -403 0
-351 -404 0
-351 -405 0
-351 -406 0
-351 -407 0
-351 -408 0
-351 -409 0
-351 -410 0
-351 -411 0
-351 -412 0
-351 -413 0
-351 -414 0
-352 -353 0
-352 -354 0
-352 -355 0
-352 -356 0
-352 -357 0
-352 -358 0
-352 -359 0
-352 -360 0
-352 -361 0
-352 -362 0
-352 -363 0
-352 -364 0
-352 -365 0
-352 -366 0
-352 -367 0
-352 -368 0
-352 -369 0
-352 -370 0
-352 -371 0
-352 -372 0
-352 -373 0
-352 -374 0
-352 -375 0
-352 -376 0
-352 -377 0
-352 -378 0
-352 -379 0
-352 -380 0
-352 -381 0
-352 -382 0
-352 -383 0
-352 -384 0
-352 -385 0
-352 -386 0
-352 -387 0
-352 -388 0
-352 -389 0
-352 -390 0
-352 -391 0
-352 -392 0
-352 -393 0
-352 -394 0
-352 -395 0
-352 -396 0
-352 -397 0
-352 -398 0
-352 -399 0
-352 -400 0
-352 -401 0
-352 -402 0
-352 -403 0
-352 -404 0
-352 -405 0
-352 -406 0
-352 -407 0
-352 -408 0
-352 -409 0
-352 -410 0
-352 -411 0
-352 -412 0
-352 -413 0
-352 -414 0
-353 -354 0
-353 -355 0
-353 -356 0
-353 -357 0
-353 -358 0
-353 -359 0
-353 -360 0
-353 -361 0
-353 -362 0
-353 -363 0
-353 -364 0
-353 -365 0
-353 -366 0
-353 -367 0
-353 -368 0
-353 -369 0
-353 -370 0
-353 -371 0
-353 -372 0
-353 -373 0
-353 -374 0
-353 -375 0
-353 -376 0
-353 -377 0
-353 -378 0
-353 -379 0
-353 -380 0
-353 -381 0
-353 -382 0
-353 -383 0
-353 -384 0
-353 -385 0
-353 -386 0
-353 -387 0
-353 -388 0
-353 -389 0
-353 -390 0
-353 -391 0
-353 -392 0
-353 -393 0
-353 -394 0
-353 -395 0
-353 -396 0
-353 -397 0
-353 -398 0
-353 -399 0
-353 -400 0
-353 -401 0
-353 -402 0
-353 -403 0
-353 -404 0
-353 -405 0
-353 -406 0
-353 -407 0
-353 -408 0
-353 -409 0
-353 -410 0
-353 -411 0
-353 -412 0
-353 -413 0
-353 -414 0
-354 -355 0
-354 -356 0
-354 -357 0
-354 -358 0
-354 -359 0
-354 -360 0
-354 -361 0
-354 -362 0
-354 -363 0
-354 -364 0
-354 -365 0
-354 -366 0
-354 -367 0
-354 -368 0
-354 -369 0
-354 -370 0
-354 -371 0
-354 -372 0
-354 -373 0
-354 -374 0
-354 -375 0
-354 -376 0
-354 -377 0
-354 -378 0
-354 -379 0
-354 -380 0
-354 -381 0
-354 -382 0
-354 -383 0
-354 -384 0
-354 -385 0
-354 -386 0
-354 -387 0
-354 -388 0
-354 -389 0
-354 -390 0
-354 -391 0
-354 -392 0
-354 -393 0
-354 -394 0
-354 -395 0
-354 -396 0
-354 -397 0
-354 -398 0
-354 -399 0
-354 -400 0
-354 -401 0
-354 -402 0
-354 -403 0
-354 -404 0
-354 -405 0
-354 -406 0
-354 -407 0
-354 -408 0
-354 -409 0
-354 -410 0
-354 -411 0
-354 -412 0
-354 -413 0
-354 -414 0
-355 -356 0
-355 -357 0
-355 -358 0
-355 -359 0
-355 -360 0
-355 -361 0
-355 -362 0
-355 -363 0
-355 -364 0
-355 -365 0
-355 -366 0
-355 -367 0
-355 -368 0
-355 -369 0
-355 -370 0
-355 -371 0
-355 -372 0
-355 -373 0
-355 -374 0
-355 -375 0
-355 -376 0
-355 -377 0
-355 -378 0
-355 -379 0
-355 -380 0
-355 -381 0
-355 -382 0
-355 -383 0
-355 -384 0
-355 -385 0
-355 -386 0
-355 -387 0
-355 -388 0
-355 -389 0
-355 -390 0
-355 -391 0
-355 -392 0
-355 -393 0
-355 -394 0
-355 -395 0
-355 -396 0
-355 -397 0
-355 -398 0
-355 -399 0
-355 -400 0
-355 -401 0
-355 -402 0
-355 -403 0
-355 -404 0
-355 -405 0
-355 -406 0
-355 -407 0
-355 -408 0
-355 -409 0
-355 -410 0
-355 -411 0
-355 -412 0
-355 -413 0
-355 -414 0
-356 -357 0
-356 -358 0
-356 -359 0
-356 -360 0
-356 -361 0
-356 -362 0
-356 -363 0
-356 -364 0
-356 -365 0
-356 -366 0
-356 -367 0
-356 -368 0
-356 -369 0
-356 -370 0
-356 -371 0
-356 -372 0
-356 -373 0
-356 -374 0
-356 -375 0
-356 -376 0
-356 -377 0
-356 -378 0
-356 -379 0
-356 -380 0
-356 -381 0
-356 -382 0
-356 -383 0
-356 -384 0
-356 -385 0
-356 -386 0
-356 -387 0
-356 -388 0
-356 -389 0
-356 -390 0
-356 -391 0
-356 -392 0
-356 -393 0
-356 -394 0
-356 -395 0
-356 -396 0
-356 -397 0
-356 -398 0
-356 -399 0
-356 -400 0
-356 -401 0
-356 -402 0
-356 -403 0
-356 -404 0
-356 -405 0
-356 -406 0
-356 -407 0
-356 -408 0
-356 -409 0
-356 -410 0
-356 -411 0
-356 -412 0
-356 -413 0
-356 -414 0
-357 -358 0
-357 -359 0
-357 -360 0
-357 -361 0
-357 -362 0
-357 -363 0
-357 -364 0
-357 -365 0
-357 -366 0
-357 -367 0
-357 -368 0
-357 -369 0
-357 -370 0
-357 -371 0
-357 -372 0
-357 -373 0
-357 -374 0
-357 -375 0
-357 -376 0
-357 -377 0
-357 -378 0
-357 -379 0
-357 -380 0
-357 -381 0
-357 -382 0
-357 -383 0
-357 -384 0
-357 -385 0
-357 -386 0
-357 -387 0
-357 -388 0
-357 -389 0
-357 -390 0
-357 -391 0
-357 -392 0
-357 -393 0
-357 -394 0
-357 -395 0
-357 -396 0
-357 -397 0
-357 -398 0
-357 -399 0
-357 -400 0
-357 -401 0
-357 -402 0
-357 -403 0
-357 -404 0
-357 -405 0
-357 -406 0
-357 -407 0
-357 -408 0
-357 -409 0
-357 -410 0
-357 -411 0
-357 -412 0
-357 -413 0
-357 -414 0
-358 -359 0
-358 -360 0
-358 -361 0
-358 -362 0
-358 -363 0
-358 -364 0
-358 -365 0
-358 -366 0
-358 -367 0
-358 -368 0
-358 -369 0
-358 -370 0
-358 -371 0
-358 -372 0
-358 -373 0
-358 -374 0
-358 -375 0
-358 -376 0
-358 -377 0
-358 -378 0
-358 -379 0
-358 -380 0
-358 -381 0
-358 -382 0
-358 -383 0
-358 -384 0
-358 -385 0
-358 -386 0
-358 -387 0
-358 -388 0
-358 -389 0
-358 -390 0
-358 -391 0
-358 -392 0
-358 -393 0
-358 -394 0
-358 -395 0
-358 -396 0
-358 -397 0
-358 -398 0
-358 -399 0
-358 -400 0
-358 -401 0
-358 -402 0
-358 -403 0
-358 -404 0
-358 -405 0
-358 -406 0
-358 -407 0
-358 -408 0
-358 -409 0
-358 -410 0
-358 -411 0
-358 -412 0
-358 -413 0
-358 -414 0
-359 -360 0
-359 -361 0
-359 -362 0
-359 -363 0
-359 -364 0
-359 -365 0
-359 -366 0
-359 -367 0
-359 -368 0
-359 -369 0
-359 -370 0
-359 -371 0
-359 -372 0
-359 -373 0
-359 -374 0
-359 -375 0
-359 -376 0
-359 -377 0
-359 -378 0
-359 -379 0
-359 -380 0
-359 -381 0
-359 -382 0
-359 -383 0
-359 -384 0
-359 -385 0
-359 -386 0
-359 -387 0
-359 -388 0
-359 -389 0
-359 -390 0
-359 -391 0
-359 -392 0
-359 -393 0
-359 -394 0
-359 -395 0
-359 -396 0
-359 -397 0
-359 -398 0
-359 -399 0
-359 -400 0
-359 -401 0
-359 -402 0
-359 -403 0
-359 -404 0
-359 -405 0
-359 -406 0
-359 -407 0
-359 -408 0
-359 -409 0
-359 -410 0
-359 -411 0
-359 -412 0
-359 -413 0
-359 -414 0
-360 -361 0
-360 -362 0
-360 -363 0
-360 -364 0
-360 -365 0
-360 -366 0
-360 -367 0
-360 -368 0
-360 -369 0
-360 -370 0
-360 -371 0
-360 -372 0
-360 -373 0
-360 -374 0
-360 -375 0
-360 -376 0
-360 -377 0
-360 -378 0
-360 -379 0
-360 -380 0
-360 -381 0
-360 -382 0
-360 -383 0
-360 -384 0
-360 -385 0
-360 -386 0
-360 -387 0
-360 -388 0
-360 -389 0
-360 -390 0
-360 -391 0
-360 -392 0
-360 -393 0
-360 -394 0
-360 -395 0
-360 -396 0
-360 -397 0
-360 -398 0
-360 -399 0
-360 -400 0
-360 -401 0
-360 -402 0
-360 -403 0
-360 -404 0
-360 -405 0
-360 -406 0
-360 -407 0
-360 -408 0
-360 -409 0
-360 -410 0
-360 -411 0
-360 -412 0
-360 -413 0
-360 -414 0
-361 -362 0
-361 -363 0
-361 -364 0
-361 -365 0
-361 -366 0
-361 -367 0
-361 -368 0
-361 -369 0
-361 -370 0
-361 -371 0
-361 -372 0
-361 -373 0
-361 -374 0
-361 -375 0
-361 -376 0
-361 -377 0
-361 -378 0
-361 -379 0
-361 -380 0
-361 -381 0
-361 -382 0
-361 -383 0
-361 -384 0
-361 -385 0
-361 -386 0
-361 -387 0
-361 -388 0
-361 -389 0
-361 -390 0
-361 -391 0
-361 -392 0
-361 -393 0
-361 -394 0
-361 -395 0
-361 -396 0
-361 -397 0
-361 -398 0
-361 -399 0
-361 -400 0
-361 -401 0
-361 -402 0
-361 -403 0
-361 -404 0
-361 -405 0
-361 -406 0
-361 -407 0
-361 -408 0
-361 -409 0
-361 -410 0
-361 -411 0
-361 -412 0
-361 -413 0
-361 -414 0
-362 -363 0
-362 -364 0
-362 -365 0
-362 -366 0
-362 -367 0
-362 -368 0
-362 -369 0
-362 -370 0
-362 -371 0
-362 -372 0
-362 -373 0
-362 -374 0
-362 -375 0
-362 -376 0
-362 -377 0
-362 -378 0
-362 -379 0
-362 -380 0
-362 -381 0
-362 -382 0
-362 -383 0
-362 -384 0
-362 -385 0
-362 -386 0
-362 -387 0
-362 -388 0
-362 -389 0
-362 -390 0
-362 -391 0
-362 -392 0
-362 -393 0
-362 -394 0
-362 -395 0
-362 -396 0
-362 -397 0
-362 -398 0
-362 -399 0
-362 -400 0
-362 -401 0
-362 -402 0
-362 -403 0
-362 -404 0
-362 -405 0
-362 -406 0
-362 -407 0
-362 -408 0
-362 -409 0
-362 -410 0
-362 -411 0
-362 -412 0
-362 -413 0
-362 -414 0
-363 -364 0
-363 -365 0
-363 -366 0
-363 -367 0
-363 -368 0
-363 -369 0
-363 -370 0
-363 -371 0
-363 -372 0
-363 -373 0
-363 -374 0
-363 -375 0
-363 -376 0
-363 -377 0
-363 -378 0
-363 -379 0
-363 -380 0
-363 -381 0
-363 -382 0
-363 -383 0
-363 -384 0
-363 -385 0
-363 -386 0
-363 -387 0
-363 -388 0
-363 -389 0
-363 -390 0
-363 -391 0
-363 -392 0
-363 -393 0
-363 -394 0
-363 -395 0
-363 -396 0
-363 -397 0
-363 -398 0
-363 -399 0
-363 -400 0
-363 -401 0
-363 -402 0
-363 -403 0
-363 -404 0
-363 -405 0
-363 -406 0
-363 -407 0
-363 -408 0
-363 -409 0
-363 -410 0
-363 -411 0
-363 -412 0
-363 -413 0
-363 -414 0
-364 -365 0
-364 -366 0
-364 -367 0
-364 -368 0
-364 -369 0
-364 -370 0
-364 -371 0
-364 -372 0
-364 -373 0
-364 -374 0
-364 -375 0
-364 -376 0
-364 -377 0
-364 -378 0
-364 -379 0
-364 -380 0
-364 -381 0
-364 -382 0
-364 -383 0
-364 -384 0
-364 -385 0
-364 -386 0
-364 -387 0
-364 -388 0
-364 -389 0
-364 -390 0
-364 -391 0
-364 -392 0
-364 -393 0
-364 -394 0
-364 -395 0
-364 -396 0
-364 -397 0
-364 -398 0
-364 -399 0
-364 -400 0
-364 -401 0
-364 -402 0
-364 -403 0
-364 -404 0
-364 -405 0
-364 -406 0
-364 -407 0
-364 -408 0
-364 -409 0
-364 -410 0
-364 -411 0
-364 -412 0
-364 -413 0
-364 -414 0
-365 -366 0
-365 -367 0
-365 -368 0
-365 -369 0
-365 -370 0
-365 -371 0
-365 -372 0
-365 -373 0
-365 -374 0
-365 -375 0
-365 -376 0
-365 -377 0
-365 -378 0
-365 -379 0
-365 -380 0
-365 -381 0
-365 -382 0
-365 -383 0
-365 -384 0
-365 -385 0
-365 -386 0
-365 -387 0
-365 -388 0
-365 -389 0
-365 -390 0
-365 -391 0
-365 -392 0
-365 -393 0
-365 -394 0
-365 -395 0
-365 -396 0
-365 -397 0
-365 -398 0
-365 -399 0
-365 -400 0
-365 -401 0
-365 -402 0
-365 -403 0
-365 -404 0
-365 -405 0
-365 -406 0
-365 -407 0
-365 -408 0
-365 -409 0
-365 -410 0
-365 -411 0
-365 -412 0
-365 -413 0
-365 -414 0
-366 -367 0
-366 -368 0
-366 -369 0
-366 -370 0
-366 -371 0
-366 -372 0
-366 -373 0
-366 -374 0
-366 -375 0
-366 -376 0
-366 -377 0
-366 -378 0
-366 -379 0
-366 -380 0
-366 -381 0
-366 -382 0
-366 -383 0
-366 -384 0
-366 -385 0
-366 -386 0
-366 -387 0
-366 -388 0
-366 -389 0
-366 -390 0
-366 -391 0
-366 -392 0
-366 -393 0
-366 -394 0
-366 -395 0
-366 -396 0
-366 -397 0
-366 -398 0
-366 -399 0
-366 -400 0
-366 -401 0
-366 -402 0
-366 -403 0
-366 -404 0
-366 -405 0
-366 -406 0
-366 -407 0
-366 -408 0
-366 -409 0
-366 -410 0
-366 -411 0
-366 -412 0
-366 -413 0
-366 -414 0
-367 -368 0
-367 -369 0
-367 -370 0
-367 -371 0
-367 -372 0
-367 -373 0
-367 -374 0
-367 -375 0
-367 -376 0
-367 -377 0
-367 -378 0
-367 -379 0
-367 -380 0
-367 -381 0
-367 -382 0
-367 -383 0
-367 -384 0
-367 -385 0
-367 -386 0
-367 -387 0
-367 -388 0
-367 -389 0
-367 -390 0
-367 -391 0
-367 -392 0
-367 -393 0
-367 -394 0
-367 -395 0
-367 -396 0
-367 -397 0
-367 -398 0
-367 -399 0
-367 -400 0
-367 -401 0
-367 -402 0
-367 -403 0
-367 -404 0
-367 -405 0
-367 -406 0
-367 -407 0
-367 -408 0
-367 -409 0
-367 -410 0
-367 -411 0
-367 -412 0
-367 -413 0
-367 -414 0
-368 -369 0
-368 -370 0
-368 -371 0
-368 -372 0
-368 -373 0
-368 -374 0
-368 -375 0
-368 -376 0
-368 -377 0
-368 -378 0
-368 -379 0
-368 -380 0
-368 -381 0
-368 -382 0
-368 -383 0
-368 -384 0
-368 -385 0
-368 -386 0
-368 -387 0
-368 -388 0
-368 -389 0
-368 -390 0
-368 -391 0
-368 -392 0
-368 -393 0
-368 -394 0
-368 -395 0
-368 -396 0
-368 -397 0
-368 -398 0
-368 -399 0
-368 -400 0
-368 -401 0
-368 -402 0
-368 -403 0
-368 -404 0
-368 -405 0
-368 -406 0
-368 -407 0
-368 -408 0
-368 -409 0
-368 -410 0
-368 -411 0
-368 -412 0
-368 -413 0
-368 -414 0
-369 -370 0
-369 -371 0
-369 -372 0
-369 -373 0
-369 -374 0
-369 -375 0
-369 -376 0
-369 -377 0
-369 -378 0
-369 -379 0
-369 -380 0
-369 -381 0
-369 -382 0
-369 -383 0
-369 -384 0
-369 -385 0
-369 -386 0
-369 -387 0
-369 -388 0
-369 -389 0
-369 -390 0
-369 -391 0
-369 -392 0
-369 -393 0
-369 -394 0
-369 -395 0
-369 -396 0
-369 -397 0
-369 -398 0
-369 -399 0
-369 -400 0
-369 -401 0
-369 -402 0
-369 -403 0
-369 -404 0
-369 -405 0
-369 -406 0
-369 -407 0
-369 -408 0
-369 -409 0
-369 -410 0
-369 -411 0
-369 -412 0
-369 -413 0
-369 -414 0
-370 -371 0
-370 -372 0
-370 -373 0
-370 -374 0
-370 -375 0
-370 -376 0
-370 -377 0
-370 -378 0
-370 -379 0
-370 -380 0
-370 -381 0
-370 -382 0
-370 -383 0
-370 -384 0
-370 -385 0
-370 -386 0
-370 -387 0
-370 -388 0
-370 -389 0
-370 -390 0
-370 -391 0
-370 -392 0
-370 -393 0
-370 -394 0
-370 -395 0
-370 -396 0
-370 -397 0
-370 -398 0
-370 -399 0
-370 -400 0
-370 -401 0
-370 -402 0
-370 -403 0
-370 -404 0
-370 -405 0
-370 -406 0
-370 -407 0
-370 -408 0
-370 -409 0
-370 -410 0
-370 -411 0
-370 -412 0
-370 -413 0
-370 -414 0
-371 -372 0
-371 -373 0
-371 -374 0
-371 -375 0
-371 -376 0
-371 -377 0
-371 -378 0
-371 -379 0
-371 -380 0
-371 -381 0
-371 -382 0
-371 -383 0
-371 -384 0
-371 -385 0
-371 -386 0
-371 -387 0
-371 -388 0
-371 -389 0
-371 -390 0
-371 -391 0
-371 -392 0
-371 -393 0
-371 -394 0
-371 -395 0
-371 -396 0
-371 -397 0
-371 -398 0
-371 -399 0
-371 -400 0
-371 -401 0
-371 -402 0
-371 -403 0
-371 -404 0
-371 -405 0
-371 -406 0
-371 -407 0
-371 -408 0
-371 -409 0
-371 -410 0
-371 -411 0
-371 -412 0
-371 -413 0
-371 -414 0
-372 -373 0
-372 -374 0
-372 -375 0
-372 -376 0
-372 -377 0
-372 -378 0
-372 -379 0
-372 -380 0
-372 -381 0
-372 -382 0
-372 -383 0
-372 -384 0
-372 -385 0
-372 -386 0
-372 -387 0
-372 -388 0
-372 -389 0
-372 -390 0
-372 -391 0
-372 -392 0
-372 -393 0
-372 -394 0
-372 -395 0
-372 -396 0
-372 -397 0
-372 -398 0
-372 -399 0
-372 -400 0
-372 -401 0
-372 -402 0
-372 -403 0
-372 -404 0
-372 -405 0
-372 -406 0
-372 -407 0
-372 -408 0
-372 -409 0
-372 -410 0
-372 -411 0
-372 -412 0
-372 -413 0
-372 -414 0
-373 -374 0
-373 -375 0
-373 -376 0
-373 -377 0
-373 -378 0
-373 -379 0
-373 -380 0
-373 -381 0
-373 -382 0
-373 -383 0
-373 -384 0
-373 -385 0
-373 -386 0
-373 -387 0
-373 -388 0
-373 -389 0
-373 -390 0
-373 -391 0
-373 -392 0
-373 -393 0
-373 -394 0
-373 -395 0
-373 -396 0
-373 -397 0
-373 -398 0
-373 -399 0
-373 -400 0
-373 -401 0
-373 -402 0
-373 -403 0
-373 -404 0
-373 -405 0
-373 -406 0
-373 -407 0
-373 -408 0
-373 -409 0
-373 -410 0
-373 -411 0
-373 -412 0
-373 -413 0
-373 -414 0
-374 -375 0
-374 -376 0
-374 -377 0
-374 -378 0
-374 -379 0
-374 -380 0
-374 -381 0
-374 -382 0
-374 -383 0
-374 -384 0
-374 -385 0
-374 -386 0
-374 -387 0
-374 -388 0
-374 -389 0
-374 -390 0
-374 -391 0
-374 -392 0
-374 -393 0
-374 -394 0
-374 -395 0
-374 -396 0
-374 -397 0
-374 -398 0
-374 -399 0
-374 -400 0
-374 -401 0
-374 -402 0
-374 -403 0
-374 -404 0
-374 -405 0
-374 -406 0
-374 -407 0
-374 -408 0
-374 -409 0
-374 -410 0
-374 -411 0
-374 -412 0
-374 -413 0
-374 -414 0
-375 -376 0
-375 -377 0
-375 -378 0
-375 -379 0
-375 -380 0
-375 -381 0
-375 -382 0
-375 -383 0
-375 -384 0
-375 -385 0
-375 -386 0
-375 -387 0
-375 -388 0
-375 -389 0
-375 -390 0
-375 -391 0
-375 -392 0
-375 -393 0
-375 -394 0
-375 -395 0
-375 -396 0
-375 -397 0
-375 -398 0
-375 -399 0
-375 -400 0
-375 -401 0
-375 -402 0
-375 -403 0
-375 -404 0
-375 -405 0
-375 -406 0
-375 -407 0
-375 -408 0
-375 -409 0
-375 -410 0
-375 -411 0
-375 -412 0
-375 -413 0
-375 -414 0
-376 -377 0
-376 -378 0
-376 -379 0
-376 -380 0
-376 -381 0
-376 -382 0
-376 -383 0
-376 -384 0
-376 -385 0
-376 -386 0
-376 -387 0
-376 -388 0
-376 -389 0
-376 -390 0
-376 -391 0
-376 -392 0
-376 -393 0
-376 -394 0
-376 -395 0
-376 -396 0
-376 -397 0
-376 -398 0
-376 -399 0
-376 -400 0
-376 -401 0
-376 -402 0
-376 -403 0
-376 -404 0
-376 -405 0
-376 -406 0
-376 -407 0
-376 -408 0
-376 -409 0
-376 -410 0
-376 -411 0
-376 -412 0
-376 -413 0
-376 -414 0
-377 -378 0
-377 -379 0
-377 -380 0
-377 -381 0
-377 -382 0
-377 -383 0
-377 -384 0
-377 -385 0
-377 -386 0
-377 -387 0
-377 -388 0
-377 -389 0
-377 -390 0
-377 -391 0
-377 -392 0
-377 -393 0
-377 -394 0
-377 -395 0
-377 -396 0
-377 -397 0
-377 -398 0
-377 -399 0
-377 -400 0
-377 -401 0
-377 -402 0
-377 -403 0
-377 -404 0
-377 -405 0
-377 -406 0
-377 -407 0
-377 -408 0
-377 -409 0
-377 -410 0
-377 -411 0
-377 -412 0
-377 -413 0
-377 -414 0
-378 -379 0
-378 -380 0
-378 -381 0
-378 -382 0
-378 -383 0
-378 -384 0
-378 -385 0
-378 -386 0
-378 -387 0
-378 -388 0
-378 -389 0
-378 -390 0
-378 -391 0
-378 -392 0
-378 -393 0
-378 -394 0
-378 -395 0
-378 -396 0
-378 -397 0
-378 -398 0
-378 -399 0
-378 -400 0
-378 -401 0
-378 -402 0
-378 -403 0
-378 -404 0
-378 -405 0
-378 -406 0
-378 -407 0
-378 -408 0
-378 -409 0
-378 -410 0
-378 -411 0
-378 -412 0
-378 -413 0
-378 -414 0
-379 -380 0
-379 -381 0
-379 -382 0
-379 -383 0
-379 -384 0
-379 -385 0
-379 -386 0
-379 -387 0
-379 -388 0
-379 -389 0
-379 -390 0
-379 -391 0
-379 -392 0
-379 -393 0
-379 -394 0
-379 -395 0
-379 -396 0
-379 -397 0
-379 -398 0
-379 -399 0
-379 -400 0
-379 -401 0
-379 -402 0
-379 -403 0
-379 -404 0
-379 -405 0
-379 -406 0
-379 -407 0
-379 -408 0
-379 -409 0
-379 -410 0
-379 -411 0
-379 -412 0
-379 -413 0
-379 -414 0
-380 -381 0
-380 -382 0
-380 -383 0
-380 -384 0
-380 -385 0
-380 -386 0
-380 -387 0
-380 -388 0
-380 -389 0
-380 -390 0
-380 -391 0
-380 -392 0
-380 -393 0
-380 -394 0
-380 -395 0
-380 -396 0
-380 -397 0
-380 -398 0
-380 -399 0
-380 -400 0
-380 -401 0
-380 -402 0
-380 -403 0
-380 -404 0
-380 -405 0
-380 -406 0
-380 -407 0
-380 -408 0
-380 -409 0
-380 -410 0
-380 -411 0
-380 -412 0
-380 -413 0
-380 -414 0
-381 -382 0
-381 -383 0
-381 -384 0
-381 -385 0
-381 -386 0
-381 -387 0
-381 -388 0
-381 -389 0
-381 -390 0
-381 -391 0
-381 -392 0
-381 -393 0
-381 -394 0
-381 -395 0
-381 -396 0
-381 -397 0
-381 -398 0
-381 -399 0
-381 -400 0
-381 -401 0
-381 -402 0
-381 -403 0
-381 -404 0
-381 -405 0
-381 -406 0
-381 -407 0
-381 -408 0
-381 -409 0
-381 -410 0
-381 -411 0
-381 -412 0
-381 -413 0
-381 -414 0
-382 -383 0
-382 -384 0
-382 -385 0
-382 -386 0
-382 -387 0
-382 -388 0
-382 -389 0
-382 -390 0
-382 -391 0
-382 -392 0
-382 -393 0
-382 -394 0
-382 -395 0
-382 -396 0
-382 -397 0
-382 -398 0
-382 -399 0
-382 -400 0
-382 -401 0
-382 -402 0
-382 -403 0
-382 -404 0
-382 -405 0
-382 -406 0
-382 -407 0
-382 -408 0
-382 -409 0
-382 -410 0
-382 -411 0
-382 -412 0
-382 -413 0
-382 -414 0
-383 -384 0
-383 -385 0
-383 -386 0
-383 -387 0
-383 -388 0
-383 -389 0
-383 -390 0
-383 -391 0
-383 -392 0
-383 -393 0
-383 -394 0
-383 -395 0
-383 -396 0
-383 -397 0
-383 -398 0
-383 -399 0
-383 -400 0
-383 -401 0
-383 -402 0
-383 -403 0
-383 -404 0
-383 -405 0
-383 -406 0
-383 -407 0
-383 -408 0
-383 -409 0
-383 -410 0
-383 -411 0
-383 -412 0
-383 -413 0
-383 -414 0
-384 -385 0
-384 -386 0
-384 -387 0
-384 -388 0
-384 -389 0
-384 -390 0
-384 -391 0
-384 -392 0
-384 -393 0
-384 -394 0
-384 -395 0
-384 -396 0
-384 -397 0
-384 -398 0
-384 -399 0
-384 -400 0
-384 -401 0
-384 -402 0
-384 -403 0
-384 -404 0
-384 -405 0
-384 -406 0
-384 -407 0
-384 -408 0
-384 -409 0
-384 -410 0
-384 -411 0
-384 -412 0
-384 -413 0
-384 -414 0
-385 -386 0
-385 -387 0
-385 -388 0
-385 -389 0
-385 -390 0
-385 -391 0
-385 -392 0
-385 -393 0
-385 -394 0
-385 -395 0
-385 -396 0
-385 -397 0
-385 -398 0
-385 -399 0
-385 -400 0
-385 -401 0
-385 -402 0
-385 -403 0
-385 -404 0
-385 -405 0
-385 -406 0
-385 -407 0
-385 -408 0
-385 -409 0
-385 -410 0
-385 -411 0
-385 -412 0
-385 -413 0
-385 -414 0
-386 -387 0
-386 -388 0
-386 -389 0
-386 -390 0
-386 -391 0
-386 -392 0
-386 -393 0
-386 -394 0
-386 -395 0
-386 -396 0
-386 -397 0
-386 -398 0
-386 -399 0
-386 -400 0
-386 -401 0
-386 -402 0
-386 -403 0
-386 -404 0
-386 -405 0
-386 -406 0
-386 -407 0
-386 -408 0
-386 -409 0
-386 -410 0
-386 -411 0
-386 -412 0
-386 -413 0
-386 -414 0
-387 -388 0
-387 -389 0
-387 -390 0
-387 -391 0
-387 -392 0
-387 -393 0
-387 -394 0
-387 -395 0
-387 -396 0
-387 -397 0
-387 -398 0
-387 -399 0
-387 -400 0
-387 -401 0
-387 -402 0
-387 -403 0
-387 -404 0
-387 -405 0
-387 -406 0
-387 -407 0
-387 -408 0
-387 -409 0
-387 -410 0
-387 -411 0
-387 -412 0
-387 -413 0
-387 -414 0
-388 -389 0
-388 -390 0
-388 -391 0
-388 -392 0
-388 -393 0
-388 -394 0
-388 -395 0
-388 -396 0
-388 -397 0
-388 -398 0
-388 -399 0
-388 -400 0
-388 -401 0
-388 -402 0
-388 -403 0
-388 -404 0
-388 -405 0
-388 -406 0
-388 -407 0
-388 -408 0
-388 -409 0
-388 -410 0
-388 -411 0
-388 -412 0
-388 -413 0
-388 -414 0
-389 -390 0
-389 -391 0
-389 -392 0
-389 -393 0
-389 -394 0
-389 -395 0
-389 -396 0
-389 -397 0
-389 -398 0
-389 -399 0
-389 -400 0
-389 -401 0
-389 -402 0
-389 -403 0
-389 -404 0
-389 -405 0
-389 -406 0
-389 -407 0
-389 -408 0
-389 -409 0
-389 -410 0
-389 -411 0
-389 -412 0
-389 -413 0
-389 -414 0
-390 -391 0
-390 -392 0
-390 -393 0
-390 -394 0
-390 -395 0
-390 -396 0
-390 -397 0
-390 -398 0
-390 -399 0
-390 -400 0
-390 -401 0
-390 -402 0
-390 -403 0
-390 -404 0
-390 -405 0
-390 -406 0
-390 -407 0
-390 -408 0
-390 -409 0
-390 -410 0
-390 -411 0
-390 -412 0
-390 -413 0
-390 -414 0
-391 -392 0
-391 -393 0
-391 -394 0
-391 -395 0
-391 -396 0
-391 -397 0
-391 -398 0
-391 -399 0
-391 -400 0
-391 -401 0
-391 -402 0
-391 -403 0
-391 -404 0
-391 -405 0
-391 -406 0
-391 -407 0
-391 -408 0
-391 -409 0
-391 -410 0
-391 -411 0
-391 -412 0
-391 -413 0
-391 -414 0
-392 -393 0
-392 -394 0
-392 -395 0
-392 -396 0
-392 -397 0
-392 -398 0
-392 -399 0
-392 -400 0
-392 -401 0
-392 -402 0
-392 -403 0
-392 -404 0
-392 -405 0
-392 -406 0
-392 -407 0
-392 -408 0
-392 -409 0
-392 -410 0
-392 -411 0
-392 -412 0
-392 -413 0
-392 -414 0
-393 -394 0
-393 -395 0
-393 -396 0
-393 -397 0
-393 -398 0
-393 -399 0
-393 -400 0
-393 -401 0
-393 -402 0
-393 -403 0
-393 -404 0
-393 -405 0
-393 -406 0
-393 -407 0
-393 -408 0
-393 -409 0
-393 -410 0
-393 -411 0
-393 -412 0
-393 -413 0
-393 -414 0
-394 -395 0
-394 -396 0
-394 -397 0
-394 -398 0
-394 -399 0
-394 -400 0
-394 -401 0
-394 -402 0
-394 -403 0
-394 -404 0
-394 -405 0
-394 -406 0
-394 -407 0
-394 -408 0
-394 -409 0
-394 -410 0
-394 -411 0
-394 -412 0
-394 -413 0
-394 -414 0
-395 -396 0
-395 -397 0
-395 -398 0
-395 -399 0
-395 -400 0
-395 -401 0
-395 -402 0
-395 -403 0
-395 -404 0
-395 -405 0
-395 -406 0
-395 -407 0
-395 -408 0
-395 -409 0
-395 -410 0
-395 -411 0
-395 -412 0
-395 -413 0
-395 -414 0
-396 -397 0
-396 -398 0
-396 -399 0
-396 -400 0
-396 -401 0
-396 -402 0
-396 -403 0
-396 -404 0
-396 -405 0
-396 -406 0
-396 -407 0
-396 -408 0
-396 -409 0
-396 -410 0
-396 -411 0
-396 -412 0
-396 -413 0
-396 -414 0
-397 -398 0
-397 -399 0
-397 -400 0
-397 -401 0
-397 -402 0
-397 -403 0
-397 -404 0
-397 -405 0
-397 -406 0
-397 -407 0
-397 -408 0
-397 -409 0
-397 -410 0
-397 -411 0
-397 -412 0
-397 -413 0
-397 -414 0
-398 -399 0
-398 -400 0
-398 -401 0
-398 -402 0
-398 -403 0
-398 -404 0
-398 -405 0
-398 -406 0
-398 -407 0
-398 -408 0
-398 -409 0
-398 -410 0
-398 -411 0
-398 -412 0
-398 -413 0
-398 -414 0
-399 -400 0
-399 -401 0
-399 -402 0
-399 -403 0
-399 -404 0
-399 -405 0
-399 -406 0
-399 -407 0
-399 -408 0
-399 -409 0
-399 -410 0
-399 -411 0
-399 -412 0
-399 -413 0
-399 -414 0
-400 -401 0
-400 -402 0
-400 -403 0
-400 -404 0
-400 -405 0
-400 -406 0
-400 -407 0
-400 -408 0
-400 -409 0
-400 -410 0
-400 -411 0
-400 -412 0
-400 -413 0
-400 -414 0
-401 -402 0
-401 -403 0
-401 -404 0
-401 -405 0
-401 -406 0
-401 -407 0
-401 -408 0
-401 -409 0
-401 -410 0
-401 -411 0
-401 -412 0
-401 -413 0
-401 -414 0
-402 -403 0
-402 -404 0
-402 -405 0
-402 -406 0
-402 -407 0
-402 -408 0
-402 -409 0
-402 -410 0
-402 -411 0
-402 -412 0
-402 -413 0
-402 -414 0
-403 -404 0
-403 -405 0
-403 -406 0
-403 -407 0
-403 -408 0
-403 -409 0
-403 -410 0
-403 -411 0
-403 -412 0
-403 -413 0
-403 -414 0
-404 -405 0
-404 -406 0
-404 -407 0
-404 -408 0
-404 -409 0
-404 -410 0
-404 -411 0
-404 -412 0
-404 -413 0
-404 -414 0
-405 -406 0
-405 -407 0
-405 -408 0
-405 -409 0
-405 -410 0
-405 -411 0
-405 -412 0
-405 -413 0
-405 -414 0
-406 -407 0
-406 -408 0
-406 -409 0
-406 -410 0
-406 -411 0
-406 -412 0
-406 -413 0
-406 -414 0
-407 -408 0
-407 -409 0
-407 -410 0
-407 -411 0
-407 -412 0
-407 -413 0
-407 -414 0
-408 -409 0
-408 -410 0
-408 -411 0
-408 -412 0
-408 -413 0
-408 -414 0
-409 -410 0
-409 -411 0
-409 -412 0
-409 -413 0
-409 -414 0
-410 -411 0
-410 -412 0
-410 -413 0
-410 -414 0
-411 -412 0
-411 -413 0
-411 -414 0
-412 -413 0
-412 -414 0
-413 -414 0
415 416 417 418 419 420 421 422 423 424 425 426 427 428 429 430 431 432 433 434 435 436 437 438 439 440 441 442 443 444 445 446 447 448 449 450 451 452 453 454 455 456 457 458 459 460 461 462 463 464 465 466 467 468 469 470 471 472 473 474 475 476 477 478 479 480 481 482 483 484 485 486 487 488 489 490 491 492 493 494 495 496 497 498 0
-415 -416 0
-415 -417 0
-415 -418 0
-415 -419 0
-415 -420 0
-415 -421 0
-415 -422 0
-415 -423 0
-415 -424 0
-415 -425 0
-415 -426 0
-415 -427 0
-415 -428 0
-415 -429 0
-415 -430 0
-415 -431 0
-415 -432 0
-415 -433 0
-415 -434 0
-415 -435 0
-415 -436 0
-415 -437 0
-415 -438 0
-415 -439 0
-415 -440 0
-415 -441 0
-415 -442 0
-415 -443 0
-415 -444 0
-415 -445 0
-415 -446 0
-415 -447 0
-415 -448 0
-415 -449 0
-415 -450 0
-415 -451 0
-415 -452 0
-415 -453 0
-415 -454 0
-415 -455 0
-415 -456 0
-415 -457 0
-415 -458 0
-415 -459 0
-415 -460 0
-415 -461 0
-415 -462 0
-415 -463 0
-415 -464 0
-415 -465 0
-415 -466 0
-415 -467 0
-415 -468 0
-415 -469 0
-415 -470 0
-415 -471 0
-415 -472 0
-415 -473 0
-415 -474 0
-415 -475 0
-415 -476 0
-415 -477 0
-415 -478 0
-415 -479 0
-415 -480 0
-415 -481 0
-415 -482 0
-415 -483 0
-415 -484 0
-415 -485 0
-415 -486 0
-415 -487 0
-415 -488 0
-415 -489 0
-415 -490 0
-415 -491 0
-415 -492 0
-415 -493 0
-415 -494 0
-415 -495 0
-415 -496 0
-415 -497 0
-415 -498 0
-416 -417 0
-416 -418 0
-416 -419 0
-416 -420 0
-416 -421 0
-416 -422 0
-416 -423 0
-416 -424 0
-416 -425 0
-416 -426 0
-416 -427 0
-416 -428 0
-416 -429 0
-416 -430 0
-416 -431 0
-416 -432 0
-416 -433 0
-416 -434 0
-416 -435 0
-416 -436 0
-416 -437 0
-416 -438 0
-416 -439 0
-416 -440 0
-416 -441 0
-416 -442 0
-416 -443 0
-416 -444 0
-416 -445 0
-416 -446 0
-416 -447 0
-416 -448 0
-416 -449 0
-416 -450 0
-416 -451 0
-416 -452 0
-416 -453 0
-416 -454 0
-416 -455 0
-416 -456 0
-416 -457 0
-416 -458 0
-416 -459 0
-416 -460 0
-416 -461 0
-416 -462 0
-416 -463 0
-416 -464 0
-416 -465 0
-416 -466 0
-416 -467 0
-416 -468 0
-416 -469 0
-416 -470 0
-416 -471 0
-416 -472 0
-416 -473 0
-416 -474 0
-416 -475 0
-416 -476 0
-416 -477 0
-416 -478 0
-416 -479 0
-416 -480 0
-416 -481 0
-416 -482 0
-416 -483 0
-416 -484 0
-416 -485 0
-416 -486 0
-416 -487 0
-416 -488 0
-416 -489 0
-416 -490 0
-416 -491 0
-416 -492 0
-416 -493 0
-416 -494 0
-416 -495 0
-416 -496 0
-416 -497 0
-416 -498 0
-417 -418 0
-417 -419 0
-417 -420 0
-417 -421 0
-417 -422 0
-417 -423 0
-417 -424 0
-417 -425 0
-417 -426 0
-417 -427 0
-417 -428 0
-417 -429 0
-417 -430 0
-417 -431 0
-417 -432 0
-417 -433 0
-417 -434 0
-417 -435 0
-417 -436 0
-417 -437 0
-417 -438 0
-417 -439 0
-417 -440 0
-417 -441 0
-417 -442 0
-417 -443 0
-417 -444 0
-417 -445 0
-417 -446 0
-417 -447 0
-417 -448 0
-417 -449 0
-417 -450 0
-417 -451 0
-417 -452 0
-417 -453 0
-417 -454 0
-417 -455 0
-417 -456 0
-417 -457 0
-417 -458 0
-417 -459 0
-417 -460 0
-417 -461 0
-417 -462 0
-417 -463 0
-417 -464 0
-417 -465 0
-417 -466 0
-417 -467 0
-417 -468 0
-417 -469 0
-417 -470 0
-417 -471 0
-417 -472 0
-417 -473 0
-417 -474 0
-417 -475 0
-417 -476 0
-417 -477 0
-417 -478 0
-417 -479 0
-417 -480 0
-417 -481 0
-417 -482 0
-417 -483 0
-417 -484 0
-417 -485 0
-417 -486 0
-417 -487 0
-417 -488 0
-417 -489 0
-417 -490 0
-417 -491 0
-417 -492 0
-417 -493 0
-417 -494 0
-417 -495 0
-417 -496 0
-417 -497 0
-417 -498 0
-418 -419 0
-418 -420 0
-418 -421 0
-418 -422 0
-418 -423 0
-418 -424 0
-418 -425 0
-418 -426 0
-418 -427 0
-418 -428 0
-418 -429 0
-418 -430 0
-418 -431 0
-418 -432 0
-418 -433 0
-418 -434 0
-418 -435 0
-418 -436 0
-418 -437 0
-418 -438 0
-418 -439 0
-418 -440 0
-418 -441 0
-418 -442 0
-418 -443 0
-418 -444 0
-418 -445 0
-418 -446 0
-418 -447 0
-418 -448 0
-418 -449 0
-418 -450 0
-418 -451 0
-418 -452 0
-418 -453 0
-418 -454 0
-418 -455 0
-418 -456 0
-418 -457 0
-418 -458 0
-418 -459 0
-418 -460 0
-418 -461 0
-418 -462 0
-418 -463 0
-418 -464 0
-418 -465 0
-418 -466 0
-418 -467 0
-418 -468 0
-418 -469 0
-418 -470 0
-418 -471 0
-418 -472 0
-418 -473 0
-418 -474 0
-418 -475 0
-418 -476 0
-418 -477 0
-418 -478 0
-418 -479 0
-418 -480 0
-418 -481 0
-418 -482 0
-418 -483 0
-418 -484 0
-418 -485 0
-418 -486 0
-418 -487 0
-418 -488 0
-418 -489 0
-418 -490 0
-418 -491 0
-418 -492 0
-418 -493 0
-418 -494 0
-418 -495 0
-418 -496 0
-418 -497 0
-418 -498 0
-419 -420 0
-419 -421 0
-419 -422 0
-419 -423 0
-419 -424 0
-419 -425 0
-419 -426 0
-419 -427 0
-419 -428 0
-419 -429 0
-419 -430 0
-419 -431 0
-419 -432 0
-419 -433 0
-419 -434 0
-419 -435 0
-419 -436 0
-419 -437 0
-419 -438 0
-419 -439 0
-419 -440 0
-419 -441 0
-419 -442 0
-419 -443 0
-419 -444 0
-419 -445 0
-419 -446 0
-419 -447 0
-419 -448 0
-419 -449 0
-419 -450 0
-419 -451 0
-419 -452 0
-419 -453 0
-419 -454 0
-419 -455 0
-419 -456 0
-419 -457 0
-419 -458 0
-419 -459 0
-419 -460 0
-419 -461 0
-419 -462 0
-419 -463 0
-419 -464 0
-419 -465 0
-419 -466 0
-419 -467 0
-419 -468 0
-419 -469 0
-419 -470 0
-419 -471 0
-419 -472 0
-419 -473 0
-419 -474 0
-419 -475 0
-419 -476 0
-419 -477 0
-419 -478 0
-419 -479 0
-419 -480 0
-419 -481 0
-419 -482 0
-419 -483 0
-419 -484 0
-419 -485 0
-419 -486 0
-419 -487 0
-419 -488 0
-419 -489 0
-419 -490 0
-419 -491 0
-419 -492 0
-419 -493 0
-419 -494 0
-419 -495 0
-419 -496 0
-419 -497 0
-419 -498 0
-420 -421 0
-420 -422 0
-420 -423 0
-420 -424 0
-420 -425 0
-420 -426 0
-420 -427 0
-420 -428 0
-420 -429 0
-420 -430 0
-420 -431 0
-420 -432 0
-420 -433 0
-420 -434 0
-420 -435 0
-420 -436 0
-420 -437 0
-420 -438 0
-420 -439 0
-420 -440 0
-420 -441 0
-420 -442 0
-420 -443 0
-420 -444 0
-420 -445 0
-420 -446 0
-420 -447 0
-420 -448 0
-420 -449 0
-420 -450 0
-420 -451 0
-420 -452 0
-420 -453 0
-420 -454 0
-420 -455 0
-420 -456 0
-420 -457 0
-420 -458 0
-420 -459 0
-420 -460 0
-420 -461 0
-420 -462 0
-420 -463 0
-420 -464 0
-420 -465 0
-420 -466 0
-420 -467 0
-420 -468 0
-420 -469 0
-420 -470 0
-420 -471 0
-420 -472 0
-420 -473 0
-420 -474 0
-420 -475 0
-420 -476 0
-420 -477 0
-420 -478 0
-420 -479 0
-420 -480 0
-420 -481 0
-420 -482 0
-420 -483 0
-420 -484 0
-420 -485 0
-420 -486 0
-420 -487 0
-420 -488 0
-420 -489 0
-420 -490 0
-420 -491 0
-420 -492 0
-420 -493 0
-420 -494 0
-420 -495 0
-420 -496 0
-420 -497 0
-420 -498 0
-421 -422 0
-421 -423 0
-421 -424 0
-421 -425 0
-421 -426 0
-421 -427 0
-421 -428 0
-421 -429 0
-421 -430 0
-421 -431 0
-421 -432 0
-421 -433 0
-421 -434 0
-421 -435 0
-421 -436 0
-421 -437 0
-421 -438 0
-421 -439 0
-421 -440 0
-421 -441 0
-421 -442 0
-421 -443 0
-421 -444 0
-421 -445 0
-421 -446 0
-421 -447 0
-421 -448 0
-421 -449 0
-421 -450 0
-421 -451 0
-421 -452 0
-421 -453 0
-421 -454 0
-421 -455 0
-421 -456 0
-421 -457 0
-421 -458 0
-421 -459 0
-421 -460 0
-421 -461 0
-421 -462 0
-421 -463 0
-421 -464 0
-421 -465 0
-421 -466 0
-421 -467 0
-421 -468 0
-421 -469 0
-421 -470 0
-421 -471 0
-421 -472 0
-421 -473 0
-421 -474 0
-421 -475 0
-421 -476 0
-421 -477 0
-421 -478 0
-421 -479 0
-421 -480 0
-421 -481 0
-421 -482 0
-421 -483 0
-421 -484 0
-421 -485 0
-421 -486 0
-421 -487 0
-421 -488 0
-421 -489 0
-421 -490 0
-421 -491 0
-421 -492 0
-421 -493 0
-421 -494 0
-421 -495 0
-421 -496 0
-421 -497 0
-421 -498 0
-422 -423 0
-422 -424 0
-422 -425 0
-422 -426 0
-422 -427 0
-422 -428 0
-422 -429 0
-422 -430 0
-422 -431 0
-422 -432 0
-422 -433 0
-422 -434 0
-422 -435 0
-422 -436 0
-422 -437 0
-422 -438 0
-422 -439 0
-422 -440 0
-422 -441 0
-422 -442 0
-422 -443 0
-422 -444 0
-422 -445 0
-422 -446 0
-422 -447 0
-422 -448 0
-422 -449 0
-422 -450 0
-422 -451 0
-422 -452 0
-422 -453 0
-422 -454 0
-422 -455 0
-422 -456 0
-422 -457 0
-422 -458 0
-422 -459 0
-422 -460 0
-422 -461 0
-422 -462 0
-422 -463 0
-422 -464 0
-422 -465 0
-422 -466 0
-422 -467 0
-422 -468 0
-422 -469 0
-422 -470 0
-422 -471 0
-422 -472 0
-422 -473 0
-422 -474 0
-422 -475 0
-422 -476 0
-422 -477 0
-422 -478 0
-422 -479 0
-422 -480 0
-422 -481 0
-422 -482 0
-422 -483 0
-422 -484 0
-422 -485 0
-422 -486 0
-422 -487 0
-422 -488 0
-422 -489 0
-422 -490 0
-422 -491 0
-422 -492 0
-422 -493 0
-422 -494 0
-422 -495 0
-422 -496 0
-422 -497 0
-422 -498 0
-423 -424 0
-423 -425 0
-423 -426 0
-423 -427 0
-423 -428 0
-423 -429 0
-423 -430 0
-423 -431 0
-423 -432 0
-423 -433 0
-423 -434 0
-423 -435 0
-423 -436 0
-423 -437 0
-423 -438 0
-423 -439 0
-423 -440 0
-423 -441 0
-423 -442 0
-423 -443 0
-423 -444 0
-423 -445 0
-423 -446 0
-423 -447 0
-423 -448 0
-423 -449 0
-423 -450 0
-423 -451 0
-423 -452 0
-423 -453 0
-423 -454 0
-423 -455 0
-423 -456 0
-423 -457 0
-423 -458 0
-423 -459 0
-423 -460 0
-423 -461 0
-423 -462 0
-423 -463 0
-423 -464 0
-423 -465 0
-423 -466 0
-423 -467 0
-423 -468 0
-423 -469 0
-423 -470 0
-423 -471 0
-423 -472 0
-423 -473 0
-423 -474 0
-423 -475 0
-423 -476 0
-423 -477 0
-423 -478 0
-423 -479 0
-423 -480 0
-423 -481 0
-423 -482 0
-423 -483 0
-423 -484 0
-423 -485 0
-423 -486 0
-423 -487 0
-423 -488 0
-423 -489 0
-423 -490 0
-423 -491 0
-423 -492 0
-423 -493 0
-423 -494 0
-423 -495 0
-423 -496 0
-423 -497 0
-423 -498 0
-424 -425 0
-424 -426 0
-424 -427 0
-424 -428 0
-424 -429 0
-424 -430 0
-424 -431 0
-424 -432 0
-424 -433 0
-424 -434 0
-424 -435 0
-424 -436 0
-424 -437 0
-424 -438 0
-424 -439 0
-424 -440 0
-424 -441 0
-424 -442 0
-424 -443 0
-424 -444 0
-424 -445 0
-424 -446 0
-424 -447 0
-424 -448 0
-424 -449 0
-424 -450 0
-424 -451 0
-424 -452 0
-424 -453 0
-424 -454 0
-424 -455 0
-424 -456 0
-424 -457 0
-424 -458 0
-424 -459 0
-424 -460 0
-424 -461 0
-424 -462 0
-424 -463 0
-424 -464 0
-424 -465 0
-424 -466 0
-424 -467 0
-424 -468 0
-424 -469 0
-424 -470 0
-424 -471 0
-424 -472 0
-424 -473 0
-424 -474 0
-424 -475 0
-424 -476 0
-424 -477 0
-424 -478 0
-424 -479 0
-424 -480 0
-424 -481 0
-424 -482 0
-424 -483 0
-424 -484 0
-424 -485 0
-424 -486 0
-424 -487 0
-424 -488 0
-424 -489 0
-424 -490 0
-424 -491 0
-424 -492 0
-424 -493 0
-424 -494 0
-424 -495 0
-424 -496 0
-424 -497 0
-424 -498 0
-425 -426 0
-425 -427 0
-425 -428 0
-425 -429 0
-425 -430 0
-425 -431 0
-425 -432 0
-425 -433 0
-425 -434 0
-425 -435 0
-425 -436 0
-425 -437 0
-425 -438 0
-425 -439 0
-425 -440 0
-425 -441 0
-425 -442 0
-425 -443 0
-425 -444 0
-425 -445 0
-425 -446 0
-425 -447 0
-425 -448 0
-425 -449 0
-425 -450 0
-425 -451 0
-425 -452 0
-425 -453 0
-425 -454 0
-425 -455 0
-425 -456 0
-425 -457 0
-425 -458 0
-425 -459 0
-425 -460 0
-425 -461 0
-425 -462 0
-425 -463 0
-425 -464 0
-425 -465 0
-425 -466 0
-425 -467 0
-425 -468 0
-425 -469 0
-425 -470 0
-425 -471 0
-425 -472 0
-425 -473 0
-425 -474 0
-425 -475 0
-425 -476 0
-425 -477 0
-425 -478 0
-425 -479 0
-425 -480 0
-425 -481 0
-425 -482 0
-425 -483 0
-425 -484 0
-425 -485 0
-425 -486 0
-425 -487 0
-425 -488 0
-425 -489 0
-425 -490 0
-425 -491 0
-425 -492 0
-425 -493 0
-425 -494 0
-425 -495 0
-425 -496 0
-425 -497 0
-425 -498 0
-426 -427 0
-426 -428 0
-426 -429 0
-426 -430 0
-426 -431 0
-426 -432 0
-426 -433 0
-426 -434 0
-426 -435 0
-426 -436 0
-426 -437 0
-426 -438 0
-426 -439 0
-426 -440 0
-426 -441 0
-426 -442 0
-426 -443 0
-426 -444 0
-426 -445 0
-426 -446 0
-426 -447 0
-426 -448 0
-426 -449 0
-426 -450 0
-426 -451 0
-426 -452 0
-426 -453 0
-426 -454 0
-426 -455 0
-426 -456 0
-426 -457 0
-426 -458 0
-426 -459 0
-426 -460 0
-426 -461 0
-426 -462 0
-426 -463 0
-426 -464 0
-426 -465 0
-426 -466 0
-426 -467 0
-426 -468 0
-426 -469 0
-426 -470 0
-426 -471 0
-426 -472 0
-426 -473 0
-426 -474 0
-426 -475 0
-426 -476 0
-426 -477 0
-426 -478 0
-426 -479 0
-426 -480 0
-426 -481 0
-426 -482 0
-426 -483 0
-426 -484 0
-426 -485 0
-426 -486 0
-426 -487 0
-426 -488 0
-426 -489 0
-426 -490 0
-426 -491 0
-426 -492 0
-426 -493 0
-426 -494 0
-426 -495 0
-426 -496 0
-426 -497 0
-426 -498 0
-427 -428 0
-427 -429 0
-427 -430 0
-427 -431 0
-427 -432 0
-427 -433 0
-427 -434 0
-427 -435 0
-427 -436 0
-427 -437 0
-427 -438 0
-427 -439 0
-427 -440 0
-427 -441 0
-427 -442 0
-427 -443 0
-427 -444 0
-427 -445 0
-427 -446 0
-427 -447 0
-427 -448 0
-427 -449 0
-427 -450 0
-427 -451 0
-427 -452 0
-427 -453 0
-427 -454 0
-427 -455 0
-427 -456 0
-427 -457 0
-427 -458 0
-427 -459 0
-427 -460 0
-427 -461 0
-427 -462 0
-427 -463 0
-427 -464 0
-427 -465 0
-427 -466 0
-427 -467 0
-427 -468 0
-427 -469 0
-427 -470 0
-427 -471 0
-427 -472 0
-427 -473 0
-427 -474 0
-427 -475 0
-427 -476 0
-427 -477 0
-427 -478 0
-427 -479 0
-427 -480 0
-427 -481 0
-427 -482 0
-427 -483 0
-427 -484 0
-427 -485 0
-427 -486 0
-427 -487 0
-427 -488 0
-427 -489 0
-427 -490 0
-427 -491 0
-427 -492 0
-427 -493 0
-427 -494 0
-427 -495 0
-427 -496 0
-427 -497 0
-427 -498 0
-428 -429 0
-428 -430 0
-428 -431 0
-428 -432 0
-428 -433 0
-428 -434 0
-428 -435 0
-428 -436 0
-428 -437 0
-428 -438 0
-428 -439 0
-428 -440 0
-428 -441 0
-428 -442 0
-428 -443 0
-428 -444 0
-428 -445 0
-428 -446 0
-428 -447 0
-428 -448 0
-428 -449 0
-428 -450 0
-428 -451 0
-428 -452 0
-428 -453 0
-428 -454 0
-428 -455 0
-428 -456 0
-428 -457 0
-428 -458 0
-428 -459 0
-428 -460 0
-428 -461 0
-428 -462 0
-428 -463 0
-428 -464 0
-428 -465 0
-428 -466 0
-428 -467 0
-428 -468 0
-428 -469 0
-428 -470 0
-428 -471 0
-428 -472 0
-428 -473 0
-428 -474 0
-428 -475 0
-428 -476 0
-428 -477 0
-428 -478 0
-428 -479 0
-428 -480 0
-428 -481 0
-428 -482 0
-428 -483 0
-428 -484 0
-428 -485 0
-428 -486 0
-428 -487 0
-428 -488 0
-428 -489 0
-428 -490 0
-428 -491 0
-428 -492 0
-428 -493 0
-428 -494 0
-428 -495 0
-428 -496 0
-428 -497 0
-428 -498 0
-429 -430 0
-429 -431 0
-429 -432 0
-429 -433 0
-429 -434 0
-429 -435 0
-429 -436 0
-429 -437 0
-429 -438 0
-429 -439 0
-429 -440 0
-429 -441 0
-429 -442 0
-429 -443 0
-429 -444 0
-429 -445 0
-429 -446 0
-429 -447 0
-429 -448 0
-429 -449 0
-429 -450 0
-429 -451 0
-429 -452 0
-429 -453 0
-429 -454 0
-429 -455 0
-429 -456 0
-429 -457 0
-429 -458 0
-429 -459 0
-429 -460 0
-429 -461 0
-429 -462 0
-429 -463 0
-429 -464 0
-429 -465 0
-429 -466 0
-429 -467 0
-429 -468 0
-429 -469 0
-429 -470 0
-429 -471 0
-429 -472 0
-429 -473 0
-429 -474 0
-429 -475 0
-429 -476 0
-429 -477 0
-429 -478 0
-429 -479 0
-429 -480 0
-429 -481 0
-429 -482 0
-429 -483 0
-429 -484 0
-429 -485 0
-429 -486 0
-429 -487 0
-429 -488 0
-429 -489 0
-429 -490 0
-429 -491 0
-429 -492 0
-429 -493 0
-429 -494 0
-429 -495 0
-429 -496 0
-429 -497 0
-429 -498 0
-430 -431 0
-430 -432 0
-430 -433 0
-430 -434 0
-430 -435 0
-430 -436 0
-430 -437 0
-430 -438 0
-430 -439 0
-430 -440 0
-430 -441 0
-430 -442 0
-430 -443 0
-430 -444 0
-430 -445 0
-430 -446 0
-430 -447 0
-430 -448 0
-430 -449 0
-430 -450 0
-430 -451 0
-430 -452 0
-430 -453 0
-430 -454 0
-430 -455 0
-430 -456 0
-430 -457 0
-430 -458 0
-430 -459 0
-430 -460 0
-430 -461 0
-430 -462 0
-430 -463 0
-430 -464 0
-430 -465 0
-430 -466 0
-430 -467 0
-430 -468 0
-430 -469 0
-430 -470 0
-430 -471 0
-430 -472 0
-430 -473 0
-430 -474 0
-430 -475 0
-430 -476 0
-430 -477 0
-430 -478 0
-430 -479 0
-430 -480 0
-430 -481 0
-430 -482 0
-430 -483 0
-430 -484 0
-430 -485 0
-430 -486 0
-430 -487 0
-430 -488 0
-430 -489 0
-430 -490 0
-430 -491 0
-430 -492 0
-430 -493 0
-430 -494 0
-430 -495 0
-430 -496 0
-430 -497 0
-430 -498 0
-431 -432 0
-431 -433 0
-431 -434 0
-431 -435 0
-431 -436 0
-431 -437 0
-431 -438 0
-431 -439 0
-431 -440 0
-431 -441 0
-431 -442 0
-431 -443 0
-431 -444 0
-431 -445 0
-431 -446 0
-431 -447 0
-431 -448 0
-431 -449 0
-431 -450 0
-431 -451 0
-431 -452 0
-431 -453 0
-431 -454 0
-431 -455 0
-431 -456 0
-431 -457 0
-431 -458 0
-431 -459 0
-431 -460 0
-431 -461 0
-431 -462 0
-431 -463 0
-431 -464 0
-431 -465 0
-431 -466 0
-431 -467 0
-431 -468 0
-431 -469 0
-431 -470 0
-431 -471 0
-431 -472 0
-431 -473 0
-431 -474 0
-431 -475 0
-431 -476 0
-431 -477 0
-431 -478 0
-431 -479 0
-431 -480 0
-431 -481 0
-431 -482 0
-431 -483 0
-431 -484 0
-431 -485 0
-431 -486 0
-431 -487 0
-431 -488 0
-431 -489 0
-431 -490 0
-431 -491 0
-431 -492 0
-431 -493 0
-431 -494 0
-431 -495 0
-431 -496 0
-431 -497 0
-431 -498 0
-432 -433 0
-432 -434 0
-432 -435 0
-432 -436 0
-432 -437 0
-432 -438 0
-432 -439 0
-432 -440 0
-432 -441 0
-432 -442 0
-432 -443 0
-432 -444 0
-432 -445 0
-432 -446 0
-432 -447 0
-432 -448 0
-432 -449 0
-432 -450 0
-432 -451 0
-432 -452 0
-432 -453 0
-432 -454 0
-432 -455 0
-432 -456 0
-432 -457 0
-432 -458 0
-432 -459 0
-432 -460 0
-432 -461 0
-432 -462 0
-432 -463 0
-432 -464 0
-432 -465 0
-432 -466 0
-432 -467 0
-432 -468 0
-432 -469 0
-432 -470 0
-432 -471 0
-432 -472 0
-432 -473 0
-432 -474 0
-432 -475 0
-432 -476 0
-432 -477 0
-432 -478 0
-432 -479 0
-432 -480 0
-432 -481 0
-432 -482 0
-432 -483 0
-432 -484 0
-432 -485 0
-432 -486 0
-432 -487 0
-432 -488 0
-432 -489 0
-432 -490 0
-432 -491 0
-432 -492 0
-432 -493 0
-432 -494 0
-432 -495 0
-432 -496 0
-432 -497 0
-432 -498 0
-433 -434 0
-433 -435 0
-433 -436 0
-433 -437 0
-433 -438 0
-433 -439 0
-433 -440 0
-433 -441 0
-433 -442 0
-433 -443 0
-433 -444 0
-433 -445 0
-433 -446 0
-433 -447 0
-433 -448 0
-433 -449 0
-433 -450 0
-433 -451 0
-433 -452 0
-433 -453 0
-433 -454 0
-433 -455 0
-433 -456 0
-433 -457 0
-433 -458 0
-433 -459 0
-433 -460 0
-433 -461 0
-433 -462 0
-433 -463 0
-433 -464 0
-433 -465 0
-433 -466 0
-433 -467 0
-433 -468 0
-433 -469 0
-433 -470 0
-433 -471 0
-433 -472 0
-433 -473 0
-433 -474 0
-433 -475 0
-433 -476 0
-433 -477 0
-433 -478 0
-433 -479 0
-433 -480 0
-433 -481 0
-433 -482 0
-433 -483 0
-433 -484 0
-433 -485 0
-433 -486 0
-433 -487 0
-433 -488 0
-433 -489 0
-433 -490 0
-433 -491 0
-433 -492 0
-433 -493 0
-433 -494 0
-433 -495 0
-433 -496 0
-433 -497 0
-433 -498 0
-434 -435 0
-434 -436 0
-434 -437 0
-434 -438 0
-434 -439 0
-434 -440 0
-434 -441 0
-434 -442 0
-434 -443 0
-434 -444 0
-434 -445 0
-434 -446 0
-434 -447 0
-434 -448 0
-434 -449 0
-434 -450 0
-434 -451 0
-434 -452 0
-434 -453 0
-434 -454 0
-434 -455 0
-434 -456 0
-434 -457 0
-434 -458 0
-434 -459 0
-434 -460 0
-434 -461 0
-434 -462 0
-434 -463 0
-434 -464 0
-434 -465 0
-434 -466 0
-434 -467 0
-434 -468 0
-434 -469 0
-434 -470 0
-434 -471 0
-434 -472 0
-434 -473 0
-434 -474 0
-434 -475 0
-434 -476 0
-434 -477 0
-434 -478 0
-434 -479 0
-434 -480 0
-434 -481 0
-434 -482 0
-434 -483 0
-434 -484 0
-434 -485 0
-434 -486 0
-434 -487 0
-434 -488 0
-434 -489 0
-434 -490 0
-434 -491 0
-434 -492 0
-434 -493 0
-434 -494 0
-434 -495 0
-434 -496 0
-434 -497 0
-434 -498 0
-435 -436 0
-435 -437 0
-435 -438 0
-435 -439 0
-435 -440 0
-435 -441 0
-435 -442 0
-435 -443 0
-435 -444 0
-435 -445 0
-435 -446 0
-435 -447 0
-435 -448 0
-435 -449 0
-435 -450 0
-435 -451 0
-435 -452 0
-435 -453 0
-435 -454 0
-435 -455 0
-435 -456 0
-435 -457 0
-435 -458 0
-435 -459 0
-435 -460 0
-435 -461 0
-435 -462 0
-435 -463 0
-435 -464 0
-435 -465 0
-435 -466 0
-435 -467 0
-435 -468 0
-435 -469 0
-435 -470 0
-435 -471 0
-435 -472 0
-435 -473 0
-435 -474 0
-435 -475 0
-435 -476 0
-435 -477 0
-435 -478 0
-435 -479 0
-435 -480 0
-435 -481 0
-435 -482 0
-435 -483 0
-435 -484 0
-435 -485 0
-435 -486 0
-435 -487 0
-435 -488 0
-435 -489 0
-435 -490 0
-435 -491 0
-435 -492 0
-435 -493 0
-435 -494 0
-435 -495 0
-435 -496 0
-435 -497 0
-435 -498 0
-436 -437 0
-436 -438 0
-436 -439 0
-436 -440 0
-436 -441 0
-436 -442 0
-436 -443 0
-436 -444 0
-436 -445 0
-436 -446 0
-436 -447 0
-436 -448 0
-436 -449 0
-436 -450 0
-436 -451 0
-436 -452 0
-436 -453 0
-436 -454 0
-436 -455 0
-436 -456 0
-436 -457 0
-436 -458 0
-436 -459 0
-436 -460 0
-436 -461 0
-436 -462 0
-436 -463 0
-436 -464 0
-436 -465 0
-436 -466 0
-436 -467 0
-436 -468 0
-436 -469 0
-436 -470 0
-436 -471 0
-436 -472 0
-436 -473 0
-436 -474 0
-436 -475 0
-436 -476 0
-436 -477 0
-436 -478 0
-436 -479 0
-436 -480 0
-436 -481 0
-436 -482 0
-436 -483 0
-436 -484 0
-436 -485 0
-436 -486 0
-436 -487 0
-436 -488 0
-436 -489 0
-436 -490 0
-436 -491 0
-436 -492 0
-436 -493 0
-436 -494 0
-436 -495 0
-436 -496 0
-436 -497 0
-436 -498 0
-437 -438 0
-437 -439 0
-437 -440 0
-437 -441 0
-437 -442 0
-437 -443 0
-437 -444 0
-437 -445 0
-437 -446 0
-437 -447 0
-437 -448 0
-437 -449 0
-437 -450 0
-437 -451 0
-437 -452 0
-437 -453 0
-437 -454 0
-437 -455 0
-437 -456 0
-437 -457 0
-437 -458 0
-437 -459 0
-437 -460 0
-437 -461 0
-437 -462 0
-437 -463 0
-437 -464 0
-437 -465 0
-437 -466 0
-437 -467 0
-437 -468 0
-437 -469 0
-437 -470 0
-437 -471 0
-437 -472 0
-437 -473 0
-437 -474 0
-437 -475 0
-437 -476 0
-437 -477 0
-437 -478 0
-437 -479 0
-437 -480 0
-437 -481 0
-437 -482 0
-437 -483 0
-437 -484 0
-437 -485 0
-437 -486 0
-437 -487 0
-437 -488 0
-437 -489 0
-437 -490 0
-437 -491 0
-437 -492 0
-437 -493 0
-437 -494 0
-437 -495 0
-437 -496 0
-437 -497 0
-437 -498 0
-438 -439 0
-438 -440 0
-438 -441 0
-438 -442 0
-438 -443 0
-438 -444 0
-438 -445 0
-438 -446 0
-438 -447 0
-438 -448 0
-438 -449 0
-438 -450 0
-438 -451 0
-438 -452 0
-438 -453 0
-438 -454 0
-438 -455 0
-438 -456 0
-438 -457 0
-438 -458 0
-438 -459 0
-438 -460 0
-438 -461 0
-438 -462 0
-438 -463 0
-438 -464 0
-438 -465 0
-438 -466 0
-438 -467 0
-438 -468 0
-438 -469 0
-438 -470 0
-438 -471 0
-438 -472 0
-438 -473 0
-438 -474 0
-438 -475 0
-438 -476 0
-438 -477 0
-438 -478 0
-438 -479 0
-438 -480 0
-438 -481 0
-438 -482 0
-438 -483 0
-438 -484 0
-438 -485 0
-438 -486 0
-438 -487 0
-438 -488 0
-438 -489 0
-438 -490 0
-438 -491 0
-438 -492 0
-438 -493 0
-438 -494 0
-438 -495 0
-438 -496 0
-438 -497 0
-438 -498 0
-439 -440 0
-439 -441 0
-439 -442 0
-439 -443 0
-439 -444 0
-439 -445 0
-439 -446 0
-439 -447 0
-439 -448 0
-439 -449 0
-439 -450 0
-439 -451 0
-439 -452 0
-439 -453 0
-439 -454 0
-439 -455 0
-439 -456 0
-439 -457 0
-439 -458 0
-439 -459 0
-439 -460 0
-439 -461 0
-439 -462 0
-439 -463 0
-439 -464 0
-439 -465 0
-439 -466 0
-439 -467 0
-439 -468 0
-439 -469 0
-439 -470 0
-439 -471 0
-439 -472 0
-439 -473 0
-439 -474 0
-439 -475 0
-439 -476 0
-439 -477 0
-439 -478 0
-439 -479 0
-439 -480 0
-439 -481 0
-439 -482 0
-439 -483 0
-439 -484 0
-439 -485 0
-439 -486 0
-439 -487 0
-439 -488 0
-439 -489 0
-439 -490 0
-439 -491 0
-439 -492 0
-439 -493 0
-439 -494 0
-439 -495 0
-439 -496 0
-439 -497 0
-439 -498 0
-440 -441 0
-440 -442 0
-440 -443 0
-440 -444 0
-440 -445 0
-440 -446 0
-440 -447 0
-440 -448 0
-440 -449 0
-440 -450 0
-440 -451 0
-440 -452 0
-440 -453 0
-440 -454 0
-440 -455 0
-440 -456 0
-440 -457 0
-440 -458 0
-440 -459 0
-440 -460 0
-440 -461 0
-440 -462 0
-440 -463 0
-440 -464 0
-440 -465 0
-440 -466 0
-440 -467 0
-440 -468 0
-440 -469 0
-440 -470 0
-440 -471 0
-440 -472 0
-440 -473 0
-440 -474 0
-440 -475 0
-440 -476 0
-440 -477 0
-440 -478 0
-440 -479 0
-440 -480 0
-440 -481 0
-440 -482 0
-440 -483 0
-440 -484 0
-440 -485 0
-440 -486 0
-440 -487 0
-440 -488 0
-440 -489 0
-440 -490 0
-440 -491 0
-440 -492 0
-440 -493 0
-440 -494 0
-440 -495 0
-440 -496 0
-440 -497 0
-440 -498 0
-441 -442 0
-441 -443 0
-441 -444 0
-441 -445 0
-441 -446 0
-441 -447 0
-441 -448 0
-441 -449 0
-441 -450 0
-441 -451 0
-441 -452 0
-441 -453 0
-441 -454 0
-441 -455 0
-441 -456 0
-441 -457 0
-441 -458 0
-441 -459 0
-441 -460 0
-441 -461 0
-441 -462 0
-441 -463 0
-441 -464 0
-441 -465 0
-441 -466 0
-441 -467 0
-441 -468 0
-441 -469 0
-441 -470 0
-441 -471 0
-441 -472 0
-441 -473 0
-441 -474 0
-441 -475 0
-441 -476 0
-441 -477 0
-441 -478 0
-441 -479 0
-441 -480 0
-441 -481 0
-441 -482 0
-441 -483 0
-441 -484 0
-441 -485 0
-441 -486 0
-441 -487 0
-441 -488 0
-441 -489 0
-441 -490 0
-441 -491 0
-441 -492 0
-441 -493 0
-441 -494 0
-441 -495 0
-441 -496 0
-441 -497 0
-441 -498 0
-442 -443 0
-442 -444 0
-442 -445 0
-442 -446 0
-442 -447 0
-442 -448 0
-442 -449 0
-442 -450 0
-442 -451 0
-442 -452 0
-442 -453 0
-442 -454 0
-442 -455 0
-442 -456 0
-442 -457 0
-442 -458 0
-442 -459 0
-442 -460 0
-442 -461 0
-442 -462 0
-442 -463 0
-442 -464 0
-442 -465 0
-442 -466 0
-442 -467 0
-442 -468 0
-442 -469 0
-442 -470 0
-442 -471 0
-442 -472 0
-442 -473 0
-442 -474 0
-442 -475 0
-442 -476 0
-442 -477 0
-442 -478 0
-442 -479 0
-442 -480 0
-442 -481 0
-442 -482 0
-442 -483 0
-442 -484 0
-442 -485 0
-442 -486 0
-442 -487 0
-442 -488 0
-442 -489 0
-442 -490 0
-442 -491 0
-442 -492 0
-442 -493 0
-442 -494 0
-442 -495 0
-442 -496 0
-442 -497 0
-442 -498 0
-443 -444 0
-443 -445 0
-443 -446 0
-443 -447 0
-443 -448 0
-443 -449 0
-443 -450 0
-443 -451 0
-443 -452 0
-443 -453 0
-443 -454 0
-443 -455 0
-443 -456 0
-443 -457 0
-443 -458 0
-443 -459 0
-443 -460 0
-443 -461 0
-443 -462 0
-443 -463 0
-443 -464 0
-443 -465 0
-443 -466 0
-443 -467 0
-443 -468 0
-443 -469 0
-443 -470 0
-443 -471 0
-443 -472 0
-443 -473 0
-443 -474 0
-443 -475 0
-443 -476 0
-443 -477 0
-443 -478 0
-443 -479 0
-443 -480 0
-443 -481 0
-443 -482 0
-443 -483 0
-443 -484 0
-443 -485 0
-443 -486 0
-443 -487 0
-443 -488 0
-443 -489 0
-443 -490 0
-443 -491 0
-443 -492 0
-443 -493 0
-443 -494 0
-443 -495 0
-443 -496 0
-443 -497 0
-443 -498 0
-444 -445 0
-444 -446 0
-444 -447 0
-444 -448 0
-444 -449 0
-444 -450 0
-444 -451 0
-444 -452 0
-444 -453 0
-444 -454 0
-444 -455 0
-444 -456 0
-444 -457 0
-444 -458 0
-444 -459 0
-444 -460 0
-444 -461 0
-444 -462 0
-444 -463 0
-444 -464 0
-444 -465 0
-444 -466 0
-444 -467 0
-444 -468 0
-444 -469 0
-444 -470 0
-444 -471 0
-444 -472 0
-444 -473 0
-444 -474 0
-444 -475 0
-444 -476 0
-444 -477 0
-444 -478 0
-444 -479 0
-444 -480 0
-444 -481 0
-444 -482 0
-444 -483 0
-444 -484 0
-444 -485 0
-444 -486 0
-444 -487 0
-444 -488 0
-444 -489 0
-444 -490 0
-444 -491 0
-444 -492 0
-444 -493 0
-444 -494 0
-444 -495 0
-444 -496 0
-444 -497 0
-444 -498 0
-445 -446 0
-445 -447 0
-445 -448 0
-445 -449 0
-445 -450 0
-445 -451 0
-445 -452 0
-445 -453 0
-445 -454 0
-445 -455 0
-445 -456 0
-445 -457 0
-445 -458 0
-445 -459 0
-445 -460 0
-445 -461 0
-445 -462 0
-445 -463 0
-445 -464 0
-445 -465 0
-445 -466 0
-445 -467 0
-445 -468 0
-445 -469 0
-445 -470 0
-445 -471 0
-445 -472 0
-445 -473 0
-445 -474 0
-445 -475 0
-445 -476 0
-445 -477 0
-445 -478 0
-445 -479 0
-445 -480 0
-445 -481 0
-445 -482 0
-445 -483 0
-445 -484 0
-445 -485 0
-445 -486 0
-445 -487 0
-445 -488 0
-445 -489 0
-445 -490 0
-445 -491 0
-445 -492 0
-445 -493 0
-445 -494 0
-445 -495 0
-445 -496 0
-445 -497 0
-445 -498 0
-446 -447 0
-446 -448 0
-446 -449 0
-446 -450 0
-446 -451 0
-446 -452 0
-446 -453 0
-446 -454 0
-446 -455 0
-446 -456 0
-446 -457 0
-446 -458 0
-446 -459 0
-446 -460 0
-446 -461 0
-446 -462 0
-446 -463 0
-446 -464 0
-446 -465 0
-446 -466 0
-446 -467 0
-446 -468 0
-446 -469 0
-446 -470 0
-446 -471 0
-446 -472 0
-446 -473 0
-446 -474 0
-446 -475 0
-446 -476 0
-446 -477 0
-446 -478 0
-446 -479 0
-446 -480 0
-446 -481 0
-446 -482 0
-446 -483 0
-446 -484 0
-446 -485 0
-446 -486 0
-446 -487 0
-446 -488 0
-446 -489 0
-446 -490 0
-446 -491 0
-446 -492 0
-446 -493 0
-446 -494 0
-446 -495 0
-446 -496 0
-446 -497 0
-446 -498 0
-447 -448 0
-447 -449 0
-447 -450 0
-447 -451 0
-447 -452 0
-447 -453 0
-447 -454 0
-447 -455 0
-447 -456 0
-447 -457 0
-447 -458 0
-447 -459 0
-447 -460 0
-447 -461 0
-447 -462 0
-447 -463 0
-447 -464 0
-447 -465 0
-447 -466 0
-447 -467 0
-447 -468 0
-447 -469 0
-447 -470 0
-447 -471 0
-447 -472 0
-447 -473 0
-447 -474 0
-447 -475 0
-447 -476 0
-447 -477 0
-447 -478 0
-447 -479 0
-447 -480 0
-447 -481 0
-447 -482 0
-447 -483 0
-447 -484 0
-447 -485 0
-447 -486 0
-447 -487 0
-447 -488 0
-447 -489 0
-447 -490 0
-447 -491 0
-447 -492 0
-447 -493 0
-447 -494 0
-447 -495 0
-447 -496 0
-447 -497 0
-447 -498 0
-448 -449 0
-448 -450 0
-448 -451 0
-448 -452 0
-448 -453 0
-448 -454 0
-448 -455 0
-448 -456 0
-448 -457 0
-448 -458 0
-448 -459 0
-448 -460 0
-448 -461 0
-448 -462 0
-448 -463 0
-448 -464 0
-448 -465 0
-448 -466 0
-448 -467 0
-448 -468 0
-448 -469 0
-448 -470 0
-448 -471 0
-448 -472 0
-448 -473 0
-448 -474 0
-448 -475 0
-448 -476 0
-448 -477 0
-448 -478 0
-448 -479 0
-448 -480 0
-448 -481 0
-448 -482 0
-448 -483 0
-448 -484 0
-448 -485 0
-448 -486 0
-448 -487 0
-448 -488 0
-448 -489 0
-448 -490 0
-448 -491 0
-448 -492 0
-448 -493 0
-448 -494 0
-448 -495 0
-448 -496 0
-448 -497 0
-448 -498 0
-449 -450 0
-449 -451 0
-449 -452 0
-449 -453 0
-449 -454 0
-449 -455 0
-449 -456 0
-449 -457 0
-449 -458 0
-449 -459 0
-449 -460 0
-449 -461 0
-449 -462 0
-449 -463 0
-449 -464 0
-449 -465 0
-449 -466 0
-449 -467 0
-449 -468 0
-449 -469 0
-449 -470 0
-449 -471 0
-449 -472 0
-449 -473 0
-449 -474 0
-449 -475 0
-449 -476 0
-449 -477 0
-449 -478 0
-449 -479 0
-449 -480 0
-449 -481 0
-449 -482 0
-449 -483 0
-449 -484 0
-449 -485 0
-449 -486 0
-449 -487 0
-449 -488 0
-449 -489 0
-449 -490 0
-449 -491 0
-449 -492 0
-449 -493 0
-449 -494 0
-449 -495 0
-449 -496 0
-449 -497 0
-449 -498 0
-450 -451 0
-450 -452 0
-450 -453 0
-450 -454 0
-450 -455 0
-450 -456 0
-450 -457 0
-450 -458 0
-450 -459 0
-450 -460 0
-450 -461 0
-450 -462 0
-450 -463 0
-450 -464 0
-450 -465 0
-450 -466 0
-450 -467 0
-450 -468 0
-450 -469 0
-450 -470 0
-450 -471 0
-450 -472 0
-450 -473 0
-450 -474 0
-450 -475 0
-450 -476 0
-450 -477 0
-450 -478 0
-450 -479 0
-450 -480 0
-450 -481 0
-450 -482 0
-450 -483 0
-450 -484 0
-450 -485 0
-450 -486 0
-450 -487 0
-450 -488 0
-450 -489 0
-450 -490 0
-450 -491 0
-450 -492 0
-450 -493 0
-450 -494 0
-450 -495 0
-450 -496 0
-450 -497 0
-450 -498 0
-451 -452 0
-451 -453 0
-451 -454 0
-451 -455 0
-451 -456 0
-451 -457 0
-451 -458 0
-451 -459 0
-451 -460 0
-451 -461 0
-451 -462 0
-451 -463 0
-451 -464 0
-451 -465 0
-451 -466 0
-451 -467 0
-451 -468 0
-451 -469 0
-451 -470 0
-451 -471 0
-451 -472 0
-451 -473 0
-451 -474 0
-451 -475 0
-451 -476 0
-451 -477 0
-451 -478 0
-451 -479 0
-451 -480 0
-451 -481 0
-451 -482 0
-451 -483 0
-451 -484 0
-451 -485 0
-451 -486 0
-451 -487 0
-451 -488 0
-451 -489 0
-451 -490 0
-451 -491 0
-451 -492 0
-451 -493 0
-451 -494 0
-451 -495 0
-451 -496 0
-451 -497 0
-451 -498 0
-452 -453 0
-452 -454 0
-452 -455 0
-452 -456 0
-452 -457 0
-452 -458 0
-452 -459 0
-452 -460 0
-452 -461 0
-452 -462 0
-452 -463 0
-452 -464 0
-452 -465 0
-452 -466 0
-452 -467 0
-452 -468 0
-452 -469 0
-452 -470 0
-452 -471 0
-452 -472 0
-452 -473 0
-452 -474 0
-452 -475 0
-452 -476 0
-452 -477 0
-452 -478 0
-452 -479 0
-452 -480 0
-452 -481 0
-452 -482 0
-452 -483 0
-452 -484 0
-452 -485 0
-452 -486 0
-452 -487 0
-452 -488 0
-452 -489 0
-452 -490 0
-452 -491 0
-452 -492 0
-452 -493 0
-452 -494 0
-452 -495 0
-452 -496 0
-452 -497 0
-452 -498 0
-453 -454 0
-453 -455 0
-453 -456 0
-453 -457 0
-453 -458 0
-453 -459 0
-453 -460 0
-453 -461 0
-453 -462 0
-453 -463 0
-453 -464 0
-453 -465 0
-453 -466 0
-453 -467 0
-453 -468 0
-453 -469 0
-453 -470 0
-453 -471 0
-453 -472 0
-453 -473 0
-453 -474 0
-453 -475 0
-453 -476 0
-453 -477 0
-453 -478 0
-453 -479 0
-453 -480 0
-453 -481 0
-453 -482 0
-453 -483 0
-453 -484 0
-453 -485 0
-453 -486 0
-453 -487 0
-453 -488 0
-453 -489 0
-453 -490 0
-453 -491 0
-453 -492 0
-453 -493 0
-453 -494 0
-453 -495 0
-453 -496 0
-453 -497 0
-453 -498 0
-454 -455 0
-454 -456 0
-454 -457 0
-454 -458 0
-454 -459 0
-454 -460 0
-454 -461 0
-454 -462 0
-454 -463 0
-454 -464 0
-454 -465 0
-454 -466 0
-454 -467 0
-454 -468 0
-454 -469 0
-454 -470 0
-454 -471 0
-454 -472 0
-454 -473 0
-454 -474 0
-454 -475 0
-454 -476 0
-454 -477 0
-454 -478 0
-454 -479 0
-454 -480 0
-454 -481 0
-454 -482 0
-454 -483 0
-454 -484 0
-454 -485 0
-454 -486 0
-454 -487 0
-454 -488 0
-454 -489 0
-454 -490 0
-454 -491 0
-454 -492 0
-454 -493 0
-454 -494 0
-454 -495 0
-454 -496 0
-454 -497 0
-454 -498 0
-455 -456 0
-455 -457 0
-455 -458 0
-455 -459 0
-455 -460 0
-455 -461 0
-455 -462 0
-455 -463 0
-455 -464 0
-455 -465 0
-455 -466 0
-455 -467 0
-455 -468 0
-455 -469 0
-455 -470 0
-455 -471 0
-455 -472 0
-455 -473 0
-455 -474 0
-455 -475 0
-455 -476 0
-455 -477 0
-455 -478 0
-455 -479 0
-455 -480 0
-455 -481 0
-455 -482 0
-455 -483 0
-455 -484 0
-455 -485 0
-455 -486 0
-455 -487 0
-455 -488 0
-455 -489 0
-455 -490 0
-455 -491 0
-455 -492 0
-455 -493 0
-455 -494 0
-455 -495 0
-455 -496 0
-455 -497 0
-455 -498 0
-456 -457 0
-456 -458 0
-456 -459 0
-456 -460 0
-456 -461 0
-456 -462 0
-456 -463 0
-456 -464 0
-456 -465 0
-456 -466 0
-456 -467 0
-456 -468 0
-456 -469 0
-456 -470 0
-456 -471 0
-456 -472 0
-456 -473 0
-456 -474 0
-456 -475 0
-456 -476 0
-456 -477 0
-456 -478 0
-456 -479 0
-456 -480 0
-456 -481 0
-456 -482 0
-456 -483 0
-456 -484 0
-456 -485 0
-456 -486 0
-456 -487 0
-456 -488 0
-456 -489 0
-456 -490 0
-456 -491 0
-456 -492 0
-456 -493 0
-456 -494 0
-456 -495 0
-456 -496 0
-456 -497 0
-456 -498 0
-457 -458 0
-457 -459 0
-457 -460 0
-457 -461 0
-457 -462 0
-457 -463 0
-457 -464 0
-457 -465 0
-457 -466 0
-457 -467 0
-457 -468 0
-457 -469 0
-457 -470 0
-457 -471 0
-457 -472 0
-457 -473 0
-457 -474 0
-457 -475 0
-457 -476 0
-457 -477 0
-457 -478 0
-457 -479 0
-457 -480 0
-457 -481 0
-457 -482 0
-457 -483 0
-457 -484 0
-457 -485 0
-457 -486 0
-457 -487 0
-457 -488 0
-457 -489 0
-457 -490 0
-457 -491 0
-457 -492 0
-457 -493 0
-457 -494 0
-457 -495 0
-457 -496 0
-457 -497 0
-457 -498 0
-458 -459 0
-458 -460 0
-458 -461 0
-458 -462 0
-458 -463 0
-458 -464 0
-458 -465 0
-458 -466 0
-458 -467 0
-458 -468 0
-458 -469 0
-458 -470 0
-458 -471 0
-458 -472 0
-458 -473 0
-458 -474 0
-458 -475 0
-458 -476 0
-458 -477 0
-458 -478 0
-458 -479 0
-458 -480 0
-458 -481 0
-458 -482 0
-458 -483 0
-458 -484 0
-458 -485 0
-458 -486 0
-458 -487 0
-458 -488 0
-458 -489 0
-458 -490 0
-458 -491 0
-458 -492 0
-458 -493 0
-458 -494 0
-458 -495 0
-458 -496 0
-458 -497 0
-458 -498 0
-459 -460 0
-459 -461 0
-459 -462 0
-459 -463 0
-459 -464 0
-459 -465 0
-459 -466 0
-459 -467 0
-459 -468 0
-459 -469 0
-459 -470 0
-459 -471 0
-459 -472 0
-459 -473 0
-459 -474 0
-459 -475 0
-459 -476 0
-459 -477 0
-459 -478 0
-459 -479 0
-459 -480 0
-459 -481 0
-459 -482 0
-459 -483 0
-459 -484 0
-459 -485 0
-459 -486 0
-459 -487 0
-459 -488 0
-459 -489 0
-459 -490 0
-459 -491 0
-459 -492 0
-459 -493 0
-459 -494 0
-459 -495 0
-459 -496 0
-459 -497 0
-459 -498 0
-460 -461 0
-460 -462 0
-460 -463 0
-460 -464 0
-460 -465 0
-460 -466 0
-460 -467 0
-460 -468 0
-460 -469 0
-460 -470 0
-460 -471 0
-460 -472 0
-460 -473 0
-460 -474 0
-460 -475 0
-460 -476 0
-460 -477 0
-460 -478 0
-460 -479 0
-460 -480 0
-460 -481 0
-460 -482 0
-460 -483 0
-460 -484 0
-460 -485 0
-460 -486 0
-460 -487 0
-460 -488 0
-460 -489 0
-460 -490 0
-460 -491 0
-460 -492 0
-460 -493 0
-460 -494 0
-460 -495 0
-460 -496 0
-460 -497 0
-460 -498 0
-461 -462 0
-461 -463 0
-461 -464 0
-461 -465 0
-461 -466 0
-461 -467 0
-461 -468 0
-461 -469 0
-461 -470 0
-461 -471 0
-461 -472 0
-461 -473 0
-461 -474 0
-461 -475 0
-461 -476 0
-461 -477 0
-461 -478 0
-461 -479 0
-461 -480 0
-461 -481 0
-461 -482 0
-461 -483 0
-461 -484 0
-461 -485 0
-461 -486 0
-461 -487 0
-461 -488 0
-461 -489 0
-461 -490 0
-461 -491 0
-461 -492 0
-461 -493 0
-461 -494 0
-461 -495 0
-461 -496 0
-461 -497 0
-461 -498 0
-462 -463 0
-462 -464 0
-462 -465 0
-462 -466 0
-462 -467 0
-462 -468 0
-462 -469 0
-462 -470 0
-462 -471 0
-462 -472 0
-462 -473 0
-462 -474 0
-462 -475 0
-462 -476 0
-462 -477 0
-462 -478 0
-462 -479 0
-462 -480 0
-462 -481 0
-462 -482 0
-462 -483 0
-462 -484 0
-462 -485 0
-462 -486 0
-462 -487 0
-462 -488 0
-462 -489 0
-462 -490 0
-462 -491 0
-462 -492 0
-462 -493 0
-462 -494 0
-462 -495 0
-462 -496 0
-462 -497 0
-462 -498 0
-463 -464 0
-463 -465 0
-463 -466 0
-463 -467 0
-463 -468 0
-463 -469 0
-463 -470 0
-463 -471 0
-463 -472 0
-463 -473 0
-463 -474 0
-463 -475 0
-463 -476 0
-463 -477 0
-463 -478 0
-463 -479 0
-463 -480 0
-463 -481 0
-463 -482 0
-463 -483 0
-463 -484 0
-463 -485 0
-463 -486 0
-463 -487 0
-463 -488 0
-463 -489 0
-463 -490 0
-463 -491 0
-463 -492 0
-463 -493 0
-463 -494 0
-463 -495 0
-463 -496 0
-463 -497 0
-463 -498 0
-464 -465 0
-464 -466 0
-464 -467 0
-464 -468 0
-464 -469 0
-464 -470 0
-464 -471 0
-464 -472 0
-464 -473 0
-464 -474 0
-464 -475 0
-464 -476 0
-464 -477 0
-464 -478 0
-464 -479 0
-464 -480 0
-464 -481 0
-464 -482 0
-464 -483 0
-464 -484 0
-464 -485 0
-464 -486 0
-464 -487 0
-464 -488 0
-464 -489 0
-464 -490 0
-464 -491 0
-464 -492 0
-464 -493 0
-464 -494 0
-464 -495 0
-464 -496 0
-464 -497 0
-464 -498 0
-465 -466 0
-465 -467 0
-465 -468 0
-465 -469 0
-465 -470 0
-465 -471 0
-465 -472 0
-465 -473 0
-465 -474 0
-465 -475 0
-465 -476 0
-465 -477 0
-465 -478 0
-465 -479 0
-465 -480 0
-465 -481 0
-465 -482 0
-465 -483 0
-465 -484 0
-465 -485 0
-465 -486 0
-465 -487 0
-465 -488 0
-465 -489 0
-465 -490 0
-465 -491 0
-465 -492 0
-465 -493 0
-465 -494 0
-465 -495 0
-465 -496 0
-465 -497 0
-465 -498 0
-466 -467 0
-466 -468 0
-466 -469 0
-466 -470 0
-466 -471 0
-466 -472 0
-466 -473 0
-466 -474 0
-466 -475 0
-466 -476 0
-466 -477 0
-466 -478 0
-466 -479 0
-466 -480 0
-466 -481 0
-466 -482 0
-466 -483 0
-466 -484 0
-466 -485 0
-466 -486 0
-466 -487 0
-466 -488 0
-466 -489 0
-466 -490 0
-466 -491 0
-466 -492 0
-466 -493 0
-466 -494 0
-466 -495 0
-466 -496 0
-466 -497 0
-466 -498 0
-467 -468 0
-467 -469 0
-467 -470 0
-467 -471 0
-467 -472 0
-467 -473 0
-467 -474 0
-467 -475 0
-467 -476 0
-467 -477 0
-467 -478 0
-467 -479 0
-467 -480 0
-467 -481 0
-467 -482 0
-467 -483 0
-467 -484 0
-467 -485 0
-467 -486 0
-467 -487 0
-467 -488 0
-467 -489 0
-467 -490 0
-467 -491 0
-467 -492 0
-467 -493 0
-467 -494 0
-467 -495 0
-467 -496 0
-467 -497 0
-467 -498 0
-468 -469 0
-468 -470 0
-468 -471 0
-468 -472 0
-468 -473 0
-468 -474 0
-468 -475 0
-468 -476 0
-468 -477 0
-468 -478 0
-468 -479 0
-468 -480 0
-468 -481 0
-468 -482 0
-468 -483 0
-468 -484 0
-468 -485 0
-468 -486 0
-468 -487 0
-468 -488 0
-468 -489 0
-468 -490 0
-468 -491 0
-468 -492 0
-468 -493 0
-468 -494 0
-468 -495 0
-468 -496 0
-468 -497 0
-468 -498 0
-469 -470 0
-469 -471 0
-469 -472 0
-469 -473 0
-469 -474 0
-469 -475 0
-469 -476 0
-469 -477 0
-469 -478 0
-469 -479 0
-469 -480 0
-469 -481 0
-469 -482 0
-469 -483 0
-469 -484 0
-469 -485 0
-469 -486 0
-469 -487 0
-469 -488 0
-469 -489 0
-469 -490 0
-469 -491 0
-469 -492 0
-469 -493 0
-469 -494 0
-469 -495 0
-469 -496 0
-469 -497 0
-469 -498 0
-470 -471 0
-470 -472 0
-470 -473 0
-470 -474 0
-470 -475 0
-470 -476 0
-470 -477 0
-470 -478 0
-470 -479 0
-470 -480 0
-470 -481 0
-470 -482 0
-470 -483 0
-470 -484 0
-470 -485 0
-470 -486 0
-470 -487 0
-470 -488 0
-470 -489 0
-470 -490 0
-470 -491 0
-470 -492 0
-470 -493 0
-470 -494 0
-470 -495 0
-470 -496 0
-470 -497 0
-470 -498 0
-471 -472 0
-471 -473 0
-471 -474 0
-471 -475 0
-471 -476 0
-471 -477 0
-471 -478 0
-471 -479 0
-471 -480 0
-471 -481 0
-471 -482 0
-471 -483 0
-471 -484 0
-471 -485 0
-471 -486 0
-471 -487 0
-471 -488 0
-471 -489 0
-471 -490 0
-471 -491 0
-471 -492 0
-471 -493 0
-471 -494 0
-471 -495 0
-471 -496 0
-471 -497 0
-471 -498 0
-472 -473 0
-472 -474 0
-472 -475 0
-472 -476 0
-472 -477 0
-472 -478 0
-472 -479 0
-472 -480 0
-472 -481 0
-472 -482 0
-472 -483 0
-472 -484 0
-472 -485 0
-472 -486 0
-472 -487 0
-472 -488 0
-472 -489 0
-472 -490 0
-472 -491 0
-472 -492 0
-472 -493 0
-472 -494 0
-472 -495 0
-472 -496 0
-472 -497 0
-472 -498 0
-473 -474 0
-473 -475 0
-473 -476 0
-473 -477 0
-473 -478 0
-473 -479 0
-473 -480 0
-473 -481 0
-473 -482 0
-473 -483 0
-473 -484 0
-473 -485 0
-473 -486 0
-473 -487 0
-473 -488 0
-473 -489 0
-473 -490 0
-473 -491 0
-473 -492 0
-473 -493 0
-473 -494 0
-473 -495 0
-473 -496 0
-473 -497 0
-473 -498 0
-474 -475 0
-474 -476 0
-474 -477 0
-474 -478 0
-474 -479 0
-474 -480 0
-474 -481 0
-474 -482 0
-474 -483 0
-474 -484 0
-474 -485 0
-474 -486 0
-474 -487 0
-474 -488 0
-474 -489 0
-474 -490 0
-474 -491 0
-474 -492 0
-474 -493 0
-474 -494 0
-474 -495 0
-474 -496 0
-474 -497 0
-474 -498 0
-475 -476 0
-475 -477 0
-475 -478 0
-475 -479 0
-475 -480 0
-475 -481 0
-475 -482 0
-475 -483 0
-475 -484 0
-475 -485 0
-475 -486 0
-475 -487 0
-475 -488 0
-475 -489 0
-475 -490 0
-475 -491 0
-475 -492 0
-475 -493 0
-475 -494 0
-475 -495 0
-475 -496 0
-475 -497 0
-475 -498 0
-476 -477 0
-476 -478 0
-476 -479 0
-476 -480 0
-476 -481 0
-476 -482 0
-476 -483 0
-476 -484 0
-476 -485 0
-476 -486 0
-476 -487 0
-476 -488 0
-476 -489 0
-476 -490 0
-476 -491 0
-476 -492 0
-476 -493 0
-476 -494 0
-476 -495 0
-476 -496 0
-476 -497 0
-476 -498 0
-477 -478 0
-477 -479 0
-477 -480 0
-477 -481 0
-477 -482 0
-477 -483 0
-477 -484 0
-477 -485 0
-477 -486 0
-477 -487 0
-477 -488 0
-477 -489 0
-477 -490 0
-477 -491 0
-477 -492 0
-477 -493 0
-477 -494 0
-477 -495 0
-477 -496 0
-477 -497 0
-477 -498 0
-478 -479 0
-478 -480 0
-478 -481 0
-478 -482 0
-478 -483 0
-478 -484 0
-478 -485 0
-478 -486 0
-478 -487 0
-478 -488 0
-478 -489 0
-478 -490 0
-478 -491 0
-478 -492 0
-478 -493 0
-478 -494 0
-478 -495 0
-478 -496 0
-478 -497 0
-478 -498 0
-479 -480 0
-479 -481 0
-479 -482 0
-479 -483 0
-479 -484 0
-479 -485 0
-479 -486 0
-479 -487 0
-479 -488 0
-479 -489 0
-479 -490 0
-479 -491 0
-479 -492 0
-479 -493 0
-479 -494 0
-479 -495 0
-479 -496 0
-479 -497 0
-479 -498 0
-480 -481 0
-480 -482 0
-480 -483 0
-480 -484 0
-480 -485 0
-480 -486 0
-480 -487 0
-480 -488 0
-480 -489 0
-480 -490 0
-480 -491 0
-480 -492 0
-480 -493 0
-480 -494 0
-480 -495 0
-480 -496 0
-480 -497 0
-480 -498 0
-481 -482 0
-481 -483 0
-481 -484 0
-481 -485 0
-481 -486 0
-481 -487 0
-481 -488 0
-481 -489 0
-481 -490 0
-481 -491 0
-481 -492 0
-481 -493 0
-481 -494 0
-481 -495 0
-481 -496 0
-481 -497 0
-481 -498 0
-482 -483 0
-482 -484 0
-482 -485 0
-482 -486 0
-482 -487 0
-482 -488 0
-482 -489 0
-482 -490 0
-482 -491 0
-482 -492 0
-482 -493 0
-482 -494 0
-482 -495 0
-482 -496 0
-482 -497 0
-482 -498 0
-483 -484 0
-483 -485 0
-483 -486 0
-483 -487 0
-483 -488 0
-483 -489 0
-483 -490 0
-483 -491 0
-483 -492 0
-483 -493 0
-483 -494 0
-483 -495 0
-483 -496 0
-483 -497 0
-483 -498 0
-484 -485 0
-484 -486 0
-484 -487 0
-484 -488 0
-484 -489 0
-484 -490 0
-484 -491 0
-484 -492 0
-484 -493 0
-484 -494 0
-484 -495 0
-484 -496 0
-484 -497 0
-484 -498 0
-485 -486 0
-485 -487 0
-485 -488 0
-485 -489 0
-485 -490 0
-485 -491 0
-485 -492 0
-485 -493 0
-485 -494 0
-485 -495 0
-485 -496 0
-485 -497 0
-485 -498 0
-486 -487 0
-486 -488 0
-486 -489 0
-486 -490 0
-486 -491 0
-486 -492 0
-486 -493 0
-486 -494 0
-486 -495 0
-486 -496 0
-486 -497 0
-486 -498 0
-487 -488 0
-487 -489 0
-487 -490 0
-487 -491 0
-487 -492 0
-487 -493 0
-487 -494 0
-487 -495 0
-487 -496 0
-487 -497 0
-487 -498 0
-488 -489 0
-488 -490 0
-488 -491 0
-488 -492 0
-488 -493 0
-488 -494 0
-488 -495 0
-488 -496 0
-488 -497 0
-488 -498 0
-489 -490 0
-489 -491 0
-489 -492 0
-489 -493 0
-489 -494 0
-489 -495 0
-489 -496 0
-489 -497 0
-489 -498 0
-490 -491 0
-490 -492 0
-490 -493 0
-490 -494 0
-490 -495 0
-490 -496 0
-490 -497 0
-490 -498 0
-491 -492 0
-491 -493 0
-491 -494 0
-491 -495 0
-491 -496 0
-491 -497 0
-491 -498 0
-492 -493 0
-492 -494 0
-492 -495 0
-492 -496 0
-492 -497 0
-492 -498 0
-493 -494 0
-493 -495 0
-493 -496 0
-493 -497 0
-493 -498 0
-494 -495 0
-494 -496 0
-494 -497 0
-494 -498 0
-495 -496 0
-495 -497 0
-495 -498 0
-496 -497 0
-496 -498 0
-497 -498 0
499 500 501 502 503 504 505 506 507 508 509 510 511 512 513 514 515 516 517 518 519 520 521 522 523 524 525 526 527 528 529 530 531 532 533 534 535 536 537 538 539 540 541 542 543 544 545 546 547 548 549 550 551 552 553 554 555 556 557 558 559 560 561 562 563 564 565 566 567 568 569 570 571 572 573 574 575 576 577 578 579 580 581 582 0
-499 -500 0
-499 -501 0
-499 -502 0
-499 -503 0
-499 -504 0
-499 -505 0
-499 -506 0
-499 -507 0
-499 -508 0
-499 -509 0
-499 -510 0
-499 -511 0
-499 -512 0
-499 -513 0
-499 -514 0
-499 -515 0
-499 -516 0
-499 -517 0
-499 -518 0
-499 -519 0
-499 -520 0
-499 -521 0
-499 -522 0
-499 -523 0
-499 -524 0
-499 -525 0
-499 -526 0
-499 -527 0
-499 -528 0
-499 -529 0
-499 -530 0
-499 -531 0
-499 -532 0
-499 -533 0
-499 -534 0
-499 -535 0
-499 -536 0
-499 -537 0
-499 -538 0
-499 -539 0
-499 -540 0
-499 -541 0
-499 -542 0
-499 -543 0
-499 -544 0
-499 -545 0
-499 -546 0
-499 -547 0
-499 -548 0
-499 -549 0
-499 -550 0
-499 -551 0
-499 -552 0
-499 -553 0
-499 -554 0
-499 -555 0
-499 -556 0
-499 -557 0
-499 -558 0
-499 -559 0
-499 -560 0
-499 -561 0
-499 -562 0
-499 -563 0
-499 -564 0
-499 -565 0
-499 -566 0
-499 -567 0
-499 -568 0
-499 -569 0
-499 -570 0
-499 -571 0
-499 -572 0
-499 -573 0
-499 -574 0
-499 -575 0
-499 -576 0
-499 -577 0
-499 -578 0
-499 -579 0
-499 -580 0
-499 -581 0
-499 -582 0
-500 -501 0
-500 -502 0
-500 -503 0
-500 -504 0
-500 -505 0
-500 -506 0
-500 -507 0
-500 -508 0
-500 -509 0
-500 -510 0
-500 -511 0
-500 -512 0
-500 -513 0
-500 -514 0
-500 -515 0
-500 -516 0
-500 -517 0
-500 -518 0
-500 -519 0
-500 -520 0
-500 -521 0
-500 -522 0
-500 -523 0
-500 -524 0
-500 -525 0
-500 -526 0
-500 -527 0
-500 -528 0
-500 -529 0
-500 -530 0
-500 -531 0
-500 -532 0
-500 -533 0
-500 -534 0
-500 -535 0
-500 -536 0
-500 -537 0
-500 -538 0
-500 -539 0
-500 -540 0
-500 -541 0
-500 -542 0
-500 -543 0
-500 -544 0
-500 -545 0
-500 -546 0
-500 -547 0
-500 -548 0
-500 -549 0
-500 -550 0
-500 -551 0
-500 -552 0
-500 -553 0
-500 -554 0
-500 -555 0
-500 -556 0
-500 -557 0
-500 -558 0
-500 -559 0
-500 -560 0
-500 -561 0
-500 -562 0
-500 -563 0
-500 -564 0
-500 -565 0
-500 -566 0
-500 -567 0
-500 -568 0
-500 -569 0
-500 -570 0
-500 -571 0
-500 -572 0
-500 -573 0
-500 -574 0
-500 -575 0
-500 -576 0
-500 -577 0
-500 -578 0
-500 -579 0
-500 -580 0
-500 -581 0
-500 -582 0
-501 -502 0
-501 -503 0
-501 -504 0
-501 -505 0
-501 -506 0
-501 -507 0
-501 -508 0
-501 -509 0
-501 -510 0
-501 -511 0
-501 -512 0
-501 -513 0
-501 -514 0
-501 -515 0
-501 -516 0
-501 -517 0
-501 -518 0
-501 -519 0
-501 -520 0
-501 -521 0
-501 -522 0
-501 -523 0
-501 -524 0
-501 -525 0
-501 -526 0
-501 -527 0
-501 -528 0
-501 -529 0
-501 -530 0
-501 -531 0
-501 -532 0
-501 -533 0
-501 -534 0
-501 -535 0
-501 -536 0
-501 -537 0
-501 -538 0
-501 -539 0
-501 -540 0
-501 -541 0
-501 -542 0
-501 -543 0
-501 -544 0
-501 -545 0
-501 -546 0
-501 -547 0
-501 -548 0
-501 -549 0
-501 -550 0
-501 -551 0
-501 -552 0
-501 -553 0
-501 -554 0
-501 -555 0
-501 -556 0
-501 -557 0
-501 -558 0
-501 -559 0
-501 -560 0
-501 -561 0
-501 -562 0
-501 -563 0
-501 -564 0
-501 -565 0
-501 -566 0
-501 -567 0
-501 -568 0
-501 -569 0
-501 -570 0
-501 -571 0
-501 -572 0
-501 -573 0
-501 -574 0
-501 -575 0
-501 -576 0
-501 -577 0
-501 -578 0
-501 -579 0
-501 -580 0
-501 -581 0
-501 -582 0
-502 -503 0
-502 -504 0
-502 -505 0
-502 -506 0
-502 -507 0
-502 -508 0
-502 -509 0
-502 -510 0
-502 -511 0
-502 -512 0
-502 -513 0
-502 -514 0
-502 -515 0
-502 -516 0
-502 -517 0
-502 -518 0
-502 -519 0
-502 -520 0
-502 -521 0
-502 -522 0
-502 -523 0
-502 -524 0
-502 -525 0
-502 -526 0
-502 -527 0
-502 -528 0
-502 -529 0
-502 -530 0
-502 -531 0
-502 -532 0
-502 -533 0
-502 -534 0
-502 -535 0
-502 -536 0
-502 -537 0
-502 -538 0
-502 -539 0
-502 -540 0
-502 -541 0
-502 -542 0
-502 -543 0
-502 -544 0
-502 -545 0
-502 -546 0
-502 -547 0
-502 -548 0
-502 -549 0
-502 -550 0
-502 -551 0
-502 -552 0
-502 -553 0
-502 -554 0
-502 -555 0
-502 -556 0
-502 -557 0
-502 -558 0
-502 -559 0
-502 -560 0
-502 -561 0
-502 -562 0
-502 -563 0
-502 -564 0
-502 -565 0
-502 -566 0
-502 -567 0
-502 -568 0
-502 -569 0
-502 -570 0
-502 -571 0
-502 -572 0
-502 -573 0
-502 -574 0
-502 -575 0
-502 -576 0
-502 -577 0
-502 -578 0
-502 -579 0
-502 -580 0
-502 -581 0
-502 -582 0
-503 -504 0
-503 -505 0
-503 -506 0
-503 -507 0
-503 -508 0
-503 -509 0
-503 -510 0
-503 -511 0
-503 -512 0
-503 -513 0
-503 -514 0
-503 -515 0
-503 -516 0
-503 -517 0
-503 -518 0
-503 -519 0
-503 -520 0
-503 -521 0
-503 -522 0
-503 -523 0
-503 -524 0
-503 -525 0
-503 -526 0
-503 -527 0
-503 -528 0
-503 -529 0
-503 -530 0
-503 -531 0
-503 -532 0
-503 -533 0
-503 -534 0
-503 -535 0
-503 -536 0
-503 -537 0
-503 -538 0
-503 -539 0
-503 -540 0
-503 -541 0
-503 -542 0
-503 -543 0
-503 -544 0
-503 -545 0
-503 -546 0
-503 -547 0
-503 -548 0
-503 -549 0
-503 -550 0
-503 -551 0
-503 -552 0
-503 -553 0
-503 -554 0
-503 -555 0
-503 -556 0
-503 -557 0
-503 -558 0
-503 -559 0
-503 -560 0
-503 -561 0
-503 -562 0
-503 -563 0
-503 -564 0
-503 -565 0
-503 -566 0
-503 -567 0
-503 -568 0
-503 -569 0
-503 -570 0
-503 -571 0
-503 -572 0
-503 -573 0
-503 -574 0
-503 -575 0
-503 -576 0
-503 -577 0
-503 -578 0
-503 -579 0
-503 -580 0
-503 -581 0
-503 -582 0
-504 -505 0
-504 -506 0
-504 -507 0
-504 -508 0
-504 -509 0
-504 -510 0
-504 -511 0
-504 -512 0
-504 -513 0
-504 -514 0
-504 -515 0
-504 -516 0
-504 -517 0
-504 -518 0
-504 -519 0
-504 -520 0
-504 -521 0
-504 -522 0
-504 -523 0
-504 -524 0
-504 -525 0
-504 -526 0
-504 -527 0
-504 -528 0
-504 -529 0
-504 -530 0
-504 -531 0
-504 -532 0
-504 -533 0
-504 -534 0
-504 -535 0
-504 -536 0
-504 -537 0
-504 -538 0
-504 -539 0
-504 -540 0
-504 -541 0
-504 -542 0
-504 -543 0
-504 -544 0
-504 -545 0
-504 -546 0
-504 -547 0
-504 -548 0
-504 -549 0
-504 -550 0
-504 -551 0
-504 -552 0
-504 -553 0
-504 -554 0
-504 -555 0
-504 -556 0
-504 -557 0
-504 -558 0
-504 -559 0
-504 -560 0
-504 -561 0
-504 -562 0
-504 -563 0
-504 -564 0
-504 -565 0
-504 -566 0
-504 -567 0
-504 -568 0
-504 -569 0
-504 -570 0
-504 -571 0
-504 -572 0
-504 -573 0
-504 -574 0
-504 -575 0
-504 -576 0
-504 -577 0
-504 -578 0
-504 -579 0
-504 -580 0
-504 -581 0
-504 -582 0
-505 -506 0
-505 -507 0
-505 -508 0
-505 -509 0
-505 -510 0
-505 -511 0
-505 -512 0
-505 -513 0
-505 -514 0
-505 -515 0
-505 -516 0
-505 -517 0
-505 -518 0
-505 -519 0
-505 -520 0
-505 -521 0
-505 -522 0
-505 -523 0
-505 -524 0
-505 -525 0
-505 -526 0
-505 -527 0
-505 -528 0
-505 -529 0
-505 -530 0
-505 -531 0
-505 -532 0
-505 -533 0
-505 -534 0
-505 -535 0
-505 -536 0
-505 -537 0
-505 -538 0
-505 -539 0
-505 -540 0
-505 -541 0
-505 -542 0
-505 -543 0
-505 -544 0
-505 -545 0
-505 -546 0
-505 -547 0
-505 -548 0
-505 -549 0
-505 -550 0
-505 -551 0
-505 -552 0
-505 -553 0
-505 -554 0
-505 -555 0
-505 -556 0
-505 -557 0
-505 -558 0
-505 -559 0
-505 -560 0
-505 -561 0
-505 -562 0
-505 -563 0
-505 -564 0
-505 -565 0
-505 -566 0
-505 -567 0
-505 -568 0
-505 -569 0
-505 -570 0
-505 -571 0
-505 -572 0
-505 -573 0
-505 -574 0
-505 -575 0
-505 -576 0
-505 -577 0
-505 -578 0
-505 -579 0
-505 -580 0
-505 -581 0
-505 -582 0
-506 -507 0
-506 -508 0
-506 -509 0
-506 -510 0
-506 -511 0
-506 -512 0
-506 -513 0
-506 -514 0
-506 -515 0
-506 -516 0
-506 -517 0
-506 -518 0
-506 -519 0
-506 -520 0
-506 -521 0
-506 -522 0
-506 -523 0
-506 -524 0
-506 -525 0
-506 -526 0
-506 -527 0
-506 -528 0
-506 -529 0
-506 -530 0
-506 -531 0
-506 -532 0
-506 -533 0
-506 -534 0
-506 -535 0
-506 -536 0
-506 -537 0
-506 -538 0
-506 -539 0
-506 -540 0
-506 -541 0
-506 -542 0
-506 -543 0
-506 -544 0
-506 -545 0
-506 -546 0
-506 -547 0
-506 -548 0
-506 -549 0
-506 -550 0
-506 -551 0
-506 -552 0
-506 -553 0
-506 -554 0
-506 -555 0
-506 -556 0
-506 -557 0
-506 -558 0
-506 -559 0
-506 -560 0
-506 -561 0
-506 -562 0
-506 -563 0
-506 -564 0
-506 -565 0
-506 -566 0
-506 -567 0
-506 -568 0
-506 -569 0
-506 -570 0
-506 -571 0
-506 -572 0
-506 -573 0
-506 -574 0
-506 -575 0
-506 -576 0
-506 -577 0
-506 -578 0
-506 -579 0
-506 -580 0
-506 -581 0
-506 -582 0
-507 -508 0
-507 -509 0
-507 -510 0
-507 -511 0
-507 -512 0
-507 -513 0
-507 -514 0
-507 -515 0
-507 -516 0
-507 -517 0
-507 -518 0
-507 -519 0
-507 -520 0
-507 -521 0
-507 -522 0
-507 -523 0
-507 -524 0
-507 -525 0
-507 -526 0
-507 -527 0
-507 -528 0
-507 -529 0
-507 -530 0
-507 -531 0
-507 -532 0
-507 -533 0
-507 -534 0
-507 -535 0
-507 -536 0
-507 -537 0
-507 -538 0
-507 -539 0
-507 -540 0
-507 -541 0
-507 -542 0
-507 -543 0
-507 -544 0
-507 -545 0
-507 -546 0
-507 -547 0
-507 -548 0
-507 -549 0
-507 -550 0
-507 -551 0
-507 -552 0
-507 -553 0
-507 -554 0
-507 -555 0
-507 -556 0
-507 -557 0
-507 -558 0
-507 -559 0
-507 -560 0
-507 -561 0
-507 -562 0
-507 -563 0
-507 -564 0
-507 -565 0
-507 -566 0
-507 -567 0
-507 -568 0
-507 -569 0
-507 -570 0
-507 -571 0
-507 -572 0
-507 -573 0
-507 -574 0
-507 -575 0
-507 -576 0
-507 -577 0
-507 -578 0
-507 -579 0
-507 -580 0
-507 -581 0
-507 -582 0
-508 -509 0
-508 -510 0
-508 -511 0
-508 -512 0
-508 -513 0
-508 -514 0
-508 -515 0
-508 -516 0
-508 -517 0
-508 -518 0
-508 -519 0
-508 -520 0
-508 -521 0
-508 -522 0
-508 -523 0
-508 -524 0
-508 -525 0
-508 -526 0
-508 -527 0
-508 -528 0
-508 -529 0
-508 -530 0
-508 -531 0
-508 -532 0
-508 -533 0
-508 -534 0
-508 -535 0
-508 -536 0
-508 -537 0
-508 -538 0
-508 -539 0
-508 -540 0
-508 -541 0
-508 -542 0
-508 -543 0
-508 -544 0
-508 -545 0
-508 -546 0
-508 -547 0
-508 -548 0
-508 -549 0
-508 -550 0
-508 -551 0
-508 -552 0
-508 -553 0
-508 -554 0
-508 -555 0
-508 -556 0
-508 -557 0
-508 -558 0
-508 -559 0
-508 -560 0
-508 -561 0
-508 -562 0
-508 -563 0
-508 -564 0
-508 -565 0
-508 -566 0
-508 -567 0
-508 -568 0
-508 -569 0
-508 -570 0
-508 -571 0
-508 -572 0
-508 -573 0
-508 -574 0
-508 -575 0
-508 -576 0
-508 -577 0
-508 -578 0
-508 -579 0
-508 -580 0
-508 -581 0
-508 -582 0
-509 -510 0
-509 -511 0
-509 -512 0
-509 -513 0
-509 -514 0
-509 -515 0
-509 -516 0
-509 -517 0
-509 -518 0
-509 -519 0
-509 -520 0
-509 -521 0
-509 -522 0
-509 -523 0
-509 -524 0
-509 -525 0
-509 -526 0
-509 -527 0
-509 -528 0
-509 -529 0
-509 -530 0
-509 -531 0
-509 -532 0
-509 -533 0
-509 -534 0
-509 -535 0
-509 -536 0
-509 -537 0
-509 -538 0
-509 -539 0
-509 -540 0
-509 -541 0
-509 -542 0
-509 -543 0
-509 -544 0
-509 -545 0
-509 -546 0
-509 -547 0
-509 -548 0
-509 -549 0
-509 -550 0
-509 -551 0
-509 -552 0
-509 -553 0
-509 -554 0
-509 -555 0
-509 -556 0
-509 -557 0
-509 -558 0
-509 -559 0
-509 -560 0
-509 -561 0
-509 -562 0
-509 -563 0
-509 -564 0
-509 -565 0
-509 -566 0
-509 -567 0
-509 -568 0
-509 -569 0
-509 -570 0
-509 -571 0
-509 -572 0
-509 -573 0
-509 -574 0
-509 -575 0
-509 -576 0
-509 -577 0
-509 -578 0
-509 -579 0
-509 -580 0
-509 -581 0
-509 -582 0
-510 -511 0
-510 -512 0
-510 -513 0
-510 -514 0
-510 -515 0
-510 -516 0
-510 -517 0
-510 -518 0
-510 -519 0
-510 -520 0
-510 -521 0
-510 -522 0
-510 -523 0
-510 -524 0
-510 -525 0
-510 -526 0
-510 -527 0
-510 -528 0
-510 -529 0
-510 -530 0
-510 -531 0
-510 -532 0
-510 -533 0
-510 -534 0
-510 -535 0
-510 -536 0
-510 -537 0
-510 -538 0
-510 -539 0
-510 -540 0
-510 -541 0
-510 -542 0
-510 -543 0
-510 -544 0
-510 -545 0
-510 -546 0
-510 -547 0
-510 -548 0
-510 -549 0
-510 -550 0
-510 -551 0
-510 -552 0
-510 -553 0
-510 -554 0
-510 -555 0
-510 -556 0
-510 -557 0
-510 -558 0
-510 -559 0
-510 -560 0
-510 -561 0
-510 -562 0
-510 -563 0
-510 -564 0
-510 -565 0
-510 -566 0
-510 -567 0
-510 -568 0
-510 -569 0
-510 -570 0
-510 -571 0
-510 -572 0
-510 -573 0
-510 -574 0
-510 -575 0
-510 -576 0
-510 -577 0
-510 -578 0
-510 -579 0
-510 -580 0
-510 -581 0
-510 -582 0
-511 -512 0
-511 -513 0
-511 -514 0
-511 -515 0
-511 -516 0
-511 -517 0
-511 -518 0
-511 -519 0
-511 -520 0
-511 -521 0
-511 -522 0
-511 -523 0
-511 -524 0
-511 -525 0
-511 -526 0
-511 -527 0
-511 -528 0
-511 -529 0
-511 -530 0
-511 -531 0
-511 -532 0
-511 -533 0
-511 -534 0
-511 -535 0
-511 -536 0
-511 -537 0
-511 -538 0
-511 -539 0
-511 -540 0
-511 -541 0
-511 -542 0
-511 -543 0
-511 -544 0
-511 -545 0
-511 -546 0
-511 -547 0
-511 -548 0
-511 -549 0
-511 -550 0
-511 -551 0
-511 -552 0
-511 -553 0
-511 -554 0
-511 -555 0
-511 -556 0
-511 -557 0
-511 -558 0
-511 -559 0
-511 -560 0
-511 -561 0
-511 -562 0
-511 -563 0
-511 -564 0
-511 -565 0
-511 -566 0
-511 -567 0
-511 -568 0
-511 -569 0
-511 -570 0
-511 -571 0
-511 -572 0
-511 -573 0
-511 -574 0
-511 -575 0
-511 -576 0
-511 -577 0
-511 -578 0
-511 -579 0
-511 -580 0
-511 -581 0
-511 -582 0
-512 -513 0
-512 -514 0
-512 -515 0
-512 -516 0
-512 -517 0
-512 -518 0
-512 -519 0
-512 -520 0
-512 -521 0
-512 -522 0
-512 -523 0
-512 -524 0
-512 -525 0
-512 -526 0
-512 -527 0
-512 -528 0
-512 -529 0
-512 -530 0
-512 -531 0
-512 -532 0
-512 -533 0
-512 -534 0
-512 -535 0
-512 -536 0
-512 -537 0
-512 -538 0
-512 -539 0
-512 -540 0
-512 -541 0
-512 -542 0
-512 -543 0
-512 -544 0
-512 -545 0
-512 -546 0
-512 -547 0
-512 -548 0
-512 -549 0
-512 -550 0
-512 -551 0
-512 -552 0
-512 -553 0
-512 -554 0
-512 -555 0
-512 -556 0
-512 -557 0
-512 -558 0
-512 -559 0
-512 -560 0
-512 -561 0
-512 -562 0
-512 -563 0
-512 -564 0
-512 -565 0
-512 -566 0
-512 -567 0
-512 -568 0
-512 -569 0
-512 -570 0
-512 -571 0
-512 -572 0
-512 -573 0
-512 -574 0
-512 -575 0
-512 -576 0
-512 -577 0
-512 -578 0
-512 -579 0
-512 -580 0
-512 -581 0
-512 -582 0
-513 -514 0
-513 -515 0
-513 -516 0
-513 -517 0
-513 -518 0
-513 -519 0
-513 -520 0
-513 -521 0
-513 -522 0
-513 -523 0
-513 -524 0
-513 -525 0
-513 -526 0
-513 -527 0
-513 -528 0
-513 -529 0
-513 -530 0
-513 -531 0
-513 -532 0
-513 -533 0
-513 -534 0
-513 -535 0
-513 -536 0
-513 -537 0
-513 -538 0
-513 -539 0
-513 -540 0
-513 -541 0
-513 -542 0
-513 -543 0
-513 -544 0
-513 -545 0
-513 -546 0
-513 -547 0
-513 -548 0
-513 -549 0
-513 -550 0
-513 -551 0
-513 -552 0
-513 -553 0
-513 -554 0
-513 -555 0
-513 -556 0
-513 -557 0
-513 -558 0
-513 -559 0
-513 -560 0
-513 -561 0
-513 -562 0
-513 -563 0
-513 -564 0
-513 -565 0
-513 -566 0
-513 -567 0
-513 -568 0
-513 -569 0
-513 -570 0
-513 -571 0
-513 -572 0
-513 -573 0
-513 -574 0
-513 -575 0
-513 -576 0
-513 -577 0
-513 -578 0
-513 -579 0
-513 -580 0
-513 -581 0
-513 -582 0
-514 -515 0
-514 -516 0
-514 -517 0
-514 -518 0
-514 -519 0
-514 -520 0
-514 -521 0
-514 -522 0
-514 -523 0
-514 -524 0
-514 -525 0
-514 -526 0
-514 -527 0
-514 -528 0
-514 -529 0
-514 -530 0
-514 -531 0
-514 -532 0
-514 -533 0
-514 -534 0
-514 -535 0
-514 -536 0
-514 -537 0
-514 -538 0
-514 -539 0
-514 -540 0
-514 -541 0
-514 -542 0
-514 -543 0
-514 -544 0
-514 -545 0
-514 -546 0
-514 -547 0
-514 -548 0
-514 -549 0
-514 -550 0
-514 -551 0
-514 -552 0
-514 -553 0
-514 -554 0
-514 -555 0
-514 -556 0
-514 -557 0
-514 -558 0
-514 -559 0
-514 -560 0
-514 -561 0
-514 -562 0
-514 -563 0
-514 -564 0
-514 -565 0
-514 -566 0
-514 -567 0
-514 -568 0
-514 -569 0
-514 -570 0
-514 -571 0
-514 -572 0
-514 -573 0
-514 -574 0
-514 -575 0
-514 -576 0
-514 -577 0
-514 -578 0
-514 -579 0
-514 -580 0
-514 -581 0
-514 -582 0
-515 -516 0
-515 -517 0
-515 -518 0
-515 -519 0
-515 -520 0
-515 -521 0
-515 -522 0
-515 -523 0
-515 -524 0
-515 -525 0
-515 -526 0
-515 -527 0
-515 -528 0
-515 -529 0
-515 -530 0
-515 -531 0
-515 -532 0
-515 -533 0
-515 -534 0
-515 -535 0
-515 -536 0
-515 -537 0
-515 -538 0
-515 -539 0
-515 -540 0
-515 -541 0
-515 -542 0
-515 -543 0
-515 -544 0
-515 -545 0
-515 -546 0
-515 -547 0
-515 -548 0
-515 -549 0
-515 -550 0
-515 -551 0
-515 -552 0
-515 -553 0
-515 -554 0
-515 -555 0
-515 -556 0
-515 -557 0
-515 -558 0
-515 -559 0
-515 -560 0
-515 -561 0
-515 -562 0
-515 -563 0
-515 -564 0
-515 -565 0
-515 -566 0
-515 -567 0
-515 -568 0
-515 -569 0
-515 -570 0
-515 -571 0
-515 -572 0
-515 -573 0
-515 -574 0
-515 -575 0
-515 -576 0
-515 -577 0
-515 -578 0
-515 -579 0
-515 -580 0
-515 -581 0
-515 -582 0
-516 -517 0
-516 -518 0
-516 -519 0
-516 -520 0
-516 -521 0
-516 -522 0
-516 -523 0
-516 -524 0
-516 -525 0
-516 -526 0
-516 -527 0
-516 -528 0
-516 -529 0
-516 -530 0
-516 -531 0
-516 -532 0
-516 -533 0
-516 -534 0
-516 -535 0
-516 -536 0
-516 -537 0
-516 -538 0
-516 -539 0
-516 -540 0
-516 -541 0
-516 -542 0
-516 -543 0
-516 -544 0
-516 -545 0
-516 -546 0
-516 -547 0
-516 -548 0
-516 -549 0
-516 -550 0
-516 -551 0
-516 -552 0
-516 -553 0
-516 -554 0
-516 -555 0
-516 -556 0
-516 -557 0
-516 -558 0
-516 -559 0
-516 -560 0
-516 -561 0
-516 -562 0
-516 -563 0
-516 -564 0
-516 -565 0
-516 -566 0
-516 -567 0
-516 -568 0
-516 -569 0
-516 -570 0
-516 -571 0
-516 -572 0
-516 -573 0
-516 -574 0
-516 -575 0
-516 -576 0
-516 -577 0
-516 -578 0
-516 -579 0
-516 -580 0
-516 -581 0
-516 -582 0
-517 -518 0
-517 -519 0
-517 -520 0
-517 -521 0
-517 -522 0
-517 -523 0
-517 -524 0
-517 -525 0
-517 -526 0
-517 -527 0
-517 -528 0
-517 -529 0
-517 -530 0
-517 -531 0
-517 -532 0
-517 -533 0
-517 -534 0
-517 -535 0
-517 -536 0
-517 -537 0
-517 -538 0
-517 -539 0
-517 -540 0
-517 -541 0
-517 -542 0
-517 -543 0
-517 -544 0
-517 -545 0
-517 -546 0
-517 -547 0
-517 -548 0
-517 -549 0
-517 -550 0
-517 -551 0
-517 -552 0
-517 -553 0
-517 -554 0
-517 -555 0
-517 -556 0
-517 -557 0
-517 -558 0
-517 -559 0
-517 -560 0
-517 -561 0
-517 -562 0
-517 -563 0
-517 -564 0
-517 -565 0
-517 -566 0
-517 -567 0
-517 -568 0
-517 -569 0
-517 -570 0
-517 -571 0
-517 -572 0
-517 -573 0
-517 -574 0
-517 -575 0
-517 -576 0
-517 -577 0
-517 -578 0
-517 -579 0
-517 -580 0
-517 -581 0
-517 -582 0
-518 -519 0
-518 -520 0
-518 -521 0
-518 -522 0
-518 -523 0
-518 -524 0
-518 -525 0
-518 -526 0
-518 -527 0
-518 -528 0
-518 -529 0
-518 -530 0
-518 -531 0
-518 -532 0
-518 -533 0
-518 -534 0
-518 -535 0
-518 -536 0
-518 -537 0
-518 -538 0
-518 -539 0
-518 -540 0
-518 -541 0
-518 -542 0
-518 -543 0
-518 -544 0
-518 -545 0
-518 -546 0
-518 -547 0
-518 -548 0
-518 -549 0
-518 -550 0
-518 -551 0
-518 -552 0
-518 -553 0
-518 -554 0
-518 -555 0
-518 -556 0
-518 -557 0
-518 -558 0
-518 -559 0
-518 -560 0
-518 -561 0
-518 -562 0
-518 -563 0
-518 -564 0
-518 -565 0
-518 -566 0
-518 -567 0
-518 -568 0
-518 -569 0
-518 -570 0
-518 -571 0
-518 -572 0
-518 -573 0
-518 -574 0
-518 -575 0
-518 -576 0
-518 -577 0
-518 -578 0
-518 -579 0
-518 -580 0
-518 -581 0
-518 -582 0
-519 -520 0
-519 -521 0
-519 -522 0
-519 -523 0
-519 -524 0
-519 -525 0
-519 -526 0
-519 -527 0
-519 -528 0
-519 -529 0
-519 -530 0
-519 -531 0
-519 -532 0
-519 -533 0
-519 -534 0
-519 -535 0
-519 -536 0
-519 -537 0
-519 -538 0
-519 -539 0
-519 -540 0
-519 -541 0
-519 -542 0
-519 -543 0
-519 -544 0
-519 -545 0
-519 -546 0
-519 -547 0
-519 -548 0
-519 -549 0
-519 -550 0
-519 -551 0
-519 -552 0
-519 -553 0
-519 -554 0
-519 -555 0
-519 -556 0
-519 -557 0
-519 -558 0
-519 -559 0
-519 -560 0
-519 -561 0
-519 -562 0
-519 -563 0
-519 -564 0
-519 -565 0
-519 -566 0
-519 -567 0
-519 -568 0
-519 -569 0
-519 -570 0
-519 -571 0
-519 -572 0
-519 -573 0
-519 -574 0
-519 -575 0
-519 -576 0
-519 -577 0
-519 -578 0
-519 -579 0
-519 -580 0
-519 -581 0
-519 -582 0
-520 -521 0
-520 -522 0
-520 -523 0
-520 -524 0
-520 -525 0
-520 -526 0
-520 -527 0
-520 -528 0
-520 -529 0
-520 -530 0
-520 -531 0
-520 -532 0
-520 -533 0
-520 -534 0
-520 -535 0
-520 -536 0
-520 -537 0
-520 -538 0
-520 -539 0
-520 -540 0
-520 -541 0
-520 -542 0
-520 -543 0
-520 -544 0
-520 -545 0
-520 -546 0
-520 -547 0
-520 -548 0
-520 -549 0
-520 -550 0
-520 -551 0
-520 -552 0
-520 -553 0
-520 -554 0
-520 -555 0
-520 -556 0
-520 -557 0
-520 -558 0
-520 -559 0
-520 -560 0
-520 -561 0
-520 -562 0
-520 -563 0
-520 -564 0
-520 -565 0
-520 -566 0
-520 -567 0
-520 -568 0
-520 -569 0
-520 -570 0
-520 -571 0
-520 -572 0
-520 -573 0
-520 -574 0
-520 -575 0
-520 -576 0
-520 -577 0
-520 -578 0
-520 -579 0
-520 -580 0
-520 -581 0
-520 -582 0
-521 -522 0
-521 -523 0
-521 -524 0
-521 -525 0
-521 -526 0
-521 -527 0
-521 -528 0
-521 -529 0
-521 -530 0
-521 -531 0
-521 -532 0
-521 -533 0
-521 -534 0
-521 -535 0
-521 -536 0
-521 -537 0
-521 -538 0
-521 -539 0
-521 -540 0
-521 -541 0
-521 -542 0
-521 -543 0
-521 -544 0
-521 -545 0
-521 -546 0
-521 -547 0
-521 -548 0
-521 -549 0
-521 -550 0
-521 -551 0
-521 -552 0
-521 -553 0
-521 -554 0
-521 -555 0
-521 -556 0
-521 -557 0
-521 -558 0
-521 -559 0
-521 -560 0
-521 -561 0
-521 -562 0
-521 -563 0
-521 -564 0
-521 -565 0
-521 -566 0
-521 -567 0
-521 -568 0
-521 -569 0
-521 -570 0
-521 -571 0
-521 -572 0
-521 -573 0
-521 -574 0
-521 -575 0
-521 -576 0
-521 -577 0
-521 -578 0
-521 -579 0
-521 -580 0
-521 -581 0
-521 -582 0
-522 -523 0
-522 -524 0
-522 -525 0
-522 -526 0
-522 -527 0
-522 -528 0
-522 -529 0
-522 -530 0
-522 -531 0
-522 -532 0
-522 -533 0
-522 -534 0
-522 -535 0
-522 -536 0
-522 -537 0
-522 -538 0
-522 -539 0
-522 -540 0
-522 -541 0
-522 -542 0
-522 -543 0
-522 -544 0
-522 -545 0
-522 -546 0
-522 -547 0
-522 -548 0
-522 -549 0
-522 -550 0
-522 -551 0
-522 -552 0
-522 -553 0
-522 -554 0
-522 -555 0
-522 -556 0
-522 -557 0
-522 -558 0
-522 -559 0
-522 -560 0
-522 -561 0
-522 -562 0
-522 -563 0
-522 -564 0
-522 -565 0
-522 -566 0
-522 -567 0
-522 -568 0
-522 -569 0
-522 -570 0
-522 -571 0
-522 -572 0
-522 -573 0
-522 -574 0
-522 -575 0
-522 -576 0
-522 -577 0
-522 -578 0
-522 -579 0
-522 -580 0
-522 -581 0
-522 -582 0
-523 -524 0
-523 -525 0
-523 -526 0
-523 -527 0
-523 -528 0
-523 -529 0
-523 -530 0
-523 -531 0
-523 -532 0
-523 -533 0
-523 -534 0
-523 -535 0
-523 -536 0
-523 -537 0
-523 -538 0
-523 -539 0
-523 -540 0
-523 -541 0
-523 -542 0
-523 -543 0
-523 -544 0
-523 -545 0
-523 -546 0
-523 -547 0
-523 -548 0
-523 -549 0
-523 -550 0
-523 -551 0
-523 -552 0
-523 -553 0
-523 -554 0
-523 -555 0
-523 -556 0
-523 -557 0
-523 -558 0
-523 -559 0
-523 -560 0
-523 -561 0
-523 -562 0
-523 -563 0
-523 -564 0
-523 -565 0
-523 -566 0
-523 -567 0
-523 -568 0
-523 -569 0
-523 -570 0
-523 -571 0
-523 -572 0
-523 -573 0
-523 -574 0
-523 -575 0
-523 -576 0
-523 -577 0
-523 -578 0
-523 -579 0
-523 -580 0
-523 -581 0
-523 -582 0
-524 -525 0
-524 -526 0
-524 -527 0
-524 -528 0
-524 -529 0
-524 -530 0
-524 -531 0
-524 -532 0
-524 -533 0
-524 -534 0
-524 -535 0
-524 -536 0
-524 -537 0
-524 -538 0
-524 -539 0
-524 -540 0
-524 -541 0
-524 -542 0
-524 -543 0
-524 -544 0
-524 -545 0
-524 -546 0
-524 -547 0
-524 -548 0
-524 -549 0
-524 -550 0
-524 -551 0
-524 -552 0
-524 -553 0
-524 -554 0
-524 -555 0
-524 -556 0
-524 -557 0
-524 -558 0
-524 -559 0
-524 -560 0
-524 -561 0
-524 -562 0
-524 -563 0
-524 -564 0
-524 -565 0
-524 -566 0
-524 -567 0
-524 -568 0
-524 -569 0
-524 -570 0
-524 -571 0
-524 -572 0
-524 -573 0
-524 -574 0
-524 -575 0
-524 -576 0
-524 -577 0
-524 -578 0
-524 -579 0
-524 -580 0
-524 -581 0
-524 -582 0
-525 -526 0
-525 -527 0
-525 -528 0
-525 -529 0
-525 -530 0
-525 -531 0
-525 -532 0
-525 -533 0
-525 -534 0
-525 -535 0
-525 -536 0
-525 -537 0
-525 -538 0
-525 -539 0
-525 -540 0
-525 -541 0
-525 -542 0
-525 -543 0
-525 -544 0
-525 -545 0
-525 -546 0
-525 -547 0
-525 -548 0
-525 -549 0
-525 -550 0
-525 -551 0
-525 -552 0
-525 -553 0
-525 -554 0
-525 -555 0
-525 -556 0
-525 -557 0
-525 -558 0
-525 -559 0
-525 -560 0
-525 -561 0
-525 -562 0
-525 -563 0
-525 -564 0
-525 -565 0
-525 -566 0
-525 -567 0
-525 -568 0
-525 -569 0
-525 -570 0
-525 -571 0
-525 -572 0
-525 -573 0
-525 -574 0
-525 -575 0
-525 -576 0
-525 -577 0
-525 -578 0
-525 -579 0
-525 -580 0
-525 -581 0
-525 -582 0
-526 -527 0
-526 -528 0
-526 -529 0
-526 -530 0
-526 -531 0
-526 -532 0
-526 -533 0
-526 -534 0
-526 -535 0
-526 -536 0
-526 -537 0
-526 -538 0
-526 -539 0
-526 -540 0
-526 -541 0
-526 -542 0
-526 -543 0
-526 -544 0
-526 -545 0
-526 -546 0
-526 -547 0
-526 -548 0
-526 -549 0
-526 -550 0
-526 -551 0
-526 -552 0
-526 -553 0
-526 -554 0
-526 -555 0
-526 -556 0
-526 -557 0
-526 -558 0
-526 -559 0
-526 -560 0
-526 -561 0
-526 -562 0
-526 -563 0
-526 -564 0
-526 -565 0
-526 -566 0
-526 -567 0
-526 -568 0
-526 -569 0
-526 -570 0
-526 -571 0
-526 -572 0
-526 -573 0
-526 -574 0
-526 -575 0
-526 -576 0
-526 -577 0
-526 -578 0
-526 -579 0
-526 -580 0
-526 -581 0
-526 -582 0
-527 -528 0
-527 -529 0
-527 -530 0
-527 -531 0
-527 -532 0
-527 -533 0
-527 -534 0
-527 -535 0
-527 -536 0
-527 -537 0
-527 -538 0
-527 -539 0
-527 -540 0
-527 -541 0
-527 -542 0
-527 -543 0
-527 -544 0
-527 -545 0
-527 -546 0
-527 -547 0
-527 -548 0
-527 -549 0
-527 -550 0
-527 -551 0
-527 -552 0
-527 -553 0
-527 -554 0
-527 -555 0
-527 -556 0
-527 -557 0
-527 -558 0
-527 -559 0
-527 -560 0
-527 -561 0
-527 -562 0
-527 -563 0
-527 -564 0
-527 -565 0
-527 -566 0
-527 -567 0
-527 -568 0
-527 -569 0
-527 -570 0
-527 -571 0
-527 -572 0
-527 -573 0
-527 -574 0
-527 -575 0
-527 -576 0
-527 -577 0
-527 -578 0
-527 -579 0
-527 -580 0
-527 -581 0
-527 -582 0
-528 -529 0
-528 -530 0
-528 -531 0
-528 -532 0
-528 -533 0
-528 -534 0
-528 -535 0
-528 -536 0
-528 -537 0
-528 -538 0
-528 -539 0
-528 -540 0
-528 -541 0
-528 -542 0
-528 -543 0
-528 -544 0
-528 -545 0
-528 -546 0
-528 -547 0
-528 -548 0
-528 -549 0
-528 -550 0
-528 -551 0
-528 -552 0
-528 -553 0
-528 -554 0
-528 -555 0
-528 -556 0
-528 -557 0
-528 -558 0
-528 -559 0
-528 -560 0
-528 -561 0
-528 -562 0
-528 -563 0
-528 -564 0
-528 -565 0
-528 -566 0
-528 -567 0
-528 -568 0
-528 -569 0
-528 -570 0
-528 -571 0
-528 -572 0
-528 -573 0
-528 -574 0
-528 -575 0
-528 -576 0
-528 -577 0
-528 -578 0
-528 -579 0
-528 -580 0
-528 -581 0
-528 -582 0
-529 -530 0
-529 -531 0
-529 -532 0
-529 -533 0
-529 -534 0
-529 -535 0
-529 -536 0
-529 -537 0
-529 -538 0
-529 -539 0
-529 -540 0
-529 -541 0
-529 -542 0
-529 -543 0
-529 -544 0
-529 -545 0
-529 -546 0
-529 -547 0
-529 -548 0
-529 -549 0
-529 -550 0
-529 -551 0
-529 -552 0
-529 -553 0
-529 -554 0
-529 -555 0
-529 -556 0
-529 -557 0
-529 -558 0
-529 -559 0
-529 -560 0
-529 -561 0
-529 -562 0
-529 -563 0
-529 -564 0
-529 -565 0
-529 -566 0
-529 -567 0
-529 -568 0
-529 -569 0
-529 -570 0
-529 -571 0
-529 -572 0
-529 -573 0
-529 -574 0
-529 -575 0
-529 -576 0
-529 -577 0
-529 -578 0
-529 -579 0
-529 -580 0
-529 -581 0
-529 -582 0
-530 -531 0
-530 -532 0
-530 -533 0
-530 -534 0
-530 -535 0
-530 -536 0
-530 -537 0
-530 -538 0
-530 -539 0
-530 -540 0
-530 -541 0
-530 -542 0
-530 -543 0
-530 -544 0
-530 -545 0
-530 -546 0
-530 -547 0
-530 -548 0
-530 -549 0
-530 -550 0
-530 -551 0
-530 -552 0
-530 -553 0
-530 -554 0
-530 -555 0
-530 -556 0
-530 -557 0
-530 -558 0
-530 -559 0
-530 -560 0
-530 -561 0
-530 -562 0
-530 -563 0
-530 -564 0
-530 -565 0
-530 -566 0
-530 -567 0
-530 -568 0
-530 -569 0
-530 -570 0
-530 -571 0
-530 -572 0
-530 -573 0
-530 -574 0
-530 -575 0
-530 -576 0
-530 -577 0
-530 -578 0
-530 -579 0
-530 -580 0
-530 -581 0
-530 -582 0
-531 -532 0
-531 -533 0
-531 -534 0
-531 -535 0
-531 -536 0
-531 -537 0
-531 -538 0
-531 -539 0
-531 -540 0
-531 -541 0
-531 -542 0
-531 -543 0
-531 -544 0
-531 -545 0
-531 -546 0
-531 -547 0
-531 -548 0
-531 -549 0
-531 -550 0
-531 -551 0
-531 -552 0
-531 -553 0
-531 -554 0
-531 -555 0
-531 -556 0
-531 -557 0
-531 -558 0
-531 -559 0
-531 -560 0
-531 -561 0
-531 -562 0
-531 -563 0
-531 -564 0
-531 -565 0
-531 -566 0
-531 -567 0
-531 -568 0
-531 -569 0
-531 -570 0
-531 -571 0
-531 -572 0
-531 -573 0
-531 -574 0
-531 -575 0
-531 -576 0
-531 -577 0
-531 -578 0
-531 -579 0
-531 -580 0
-531 -581 0
-531 -582 0
-532 -533 0
-532 -534 0
-532 -535 0
-532 -536 0
-532 -537 0
-532 -538 0
-532 -539 0
-532 -540 0
-532 -541 0
-532 -542 0
-532 -543 0
-532 -544 0
-532 -545 0
-532 -546 0
-532 -547 0
-532 -548 0
-532 -549 0
-532 -550 0
-532 -551 0
-532 -552 0
-532 -553 0
-532 -554 0
-532 -555 0
-532 -556 0
-532 -557 0
-532 -558 0
-532 -559 0
-532 -560 0
-532 -561 0
-532 -562 0
-532 -563 0
-532 -564 0
-532 -565 0
-532 -566 0
-532 -567 0
-532 -568 0
-532 -569 0
-532 -570 0
-532 -571 0
-532 -572 0
-532 -573 0
-532 -574 0
-532 -575 0
-532 -576 0
-532 -577 0
-532 -578 0
-532 -579 0
-532 -580 0
-532 -581 0
-532 -582 0
-533 -534 0
-533 -535 0
-533 -536 0
-533 -537 0
-533 -538 0
-533 -539 0
-533 -540 0
-533 -541 0
-533 -542 0
-533 -543 0
-533 -544 0
-533 -545 0
-533 -546 0
-533 -547 0
-533 -548 0
-533 -549 0
-533 -550 0
-533 -551 0
-533 -552 0
-533 -553 0
-533 -554 0
-533 -555 0
-533 -556 0
-533 -557 0
-533 -558 0
-533 -559 0
-533 -560 0
-533 -561 0
-533 -562 0
-533 -563 0
-533 -564 0
-533 -565 0
-533 -566 0
-533 -567 0
-533 -568 0
-533 -569 0
-533 -570 0
-533 -571 0
-533 -572 0
-533 -573 0
-533 -574 0
-533 -575 0
-533 -576 0
-533 -577 0
-533 -578 0
-533 -579 0
-533 -580 0
-533 -581 0
-533 -582 0
-534 -535 0
-534 -536 0
-534 -537 0
-534 -538 0
-534 -539 0
-534 -540 0
-534 -541 0
-534 -542 0
-534 -543 0
-534 -544 0
-534 -545 0
-534 -546 0
-534 -547 0
-534 -548 0
-534 -549 0
-534 -550 0
-534 -551 0
-534 -552 0
-534 -553 0
-534 -554 0
-534 -555 0
-534 -556 0
-534 -557 0
-534 -558 0
-534 -559 0
-534 -560 0
-534 -561 0
-534 -562 0
-534 -563 0
-534 -564 0
-534 -565 0
-534 -566 0
-534 -567 0
-534 -568 0
-534 -569 0
-534 -570 0
-534 -571 0
-534 -572 0
-534 -573 0
-534 -574 0
-534 -575 0
-534 -576 0
-534 -577 0
-534 -578 0
-534 -579 0
-534 -580 0
-534 -581 0
-534 -582 0
-535 -536 0
-535 -537 0
-535 -538 0
-535 -539 0
-535 -540 0
-535 -541 0
-535 -542 0
-535 -543 0
-535 -544 0
-535 -545 0
-535 -546 0
-535 -547 0
-535 -548 0
-535 -549 0
-535 -550 0
-535 -551 0
-535 -552 0
-535 -553 0
-535 -554 0
-535 -555 0
-535 -556 0
-535 -557 0
-535 -558 0
-535 -559 0
-535 -560 0
-535 -561 0
-535 -562 0
-535 -563 0
-535 -564 0
-535 -565 0
-535 -566 0
-535 -567 0
-535 -568 0
-535 -569 0
-535 -570 0
-535 -571 0
-535 -572 0
-535 -573 0
-535 -574 0
-535 -575 0
-535 -576 0
-535 -577 0
-535 -578 0
-535 -579 0
-535 -580 0
-535 -581 0
-535 -582 0
-536 -537 0
-536 -538 0
-536 -539 0
-536 -540 0
-536 -541 0
-536 -542 0
-536 -543 0
-536 -544 0
-536 -545 0
-536 -546 0
-536 -547 0
-536 -548 0
-536 -549 0
-536 -550 0
-536 -551 0
-536 -552 0
-536 -553 0
-536 -554 0
-536 -555 0
-536 -556 0
-536 -557 0
-536 -558 0
-536 -559 0
-536 -560 0
-536 -561 0
-536 -562 0
-536 -563 0
-536 -564 0
-536 -565 0
-536 -566 0
-536 -567 0
-536 -568 0
-536 -569 0
-536 -570 0
-536 -571 0
-536 -572 0
-536 -573 0
-536 -574 0
-536 -575 0
-536 -576 0
-536 -577 0
-536 -578 0
-536 -579 0
-536 -580 0
-536 -581 0
-536 -582 0
-537 -538 0
-537 -539 0
-537 -540 0
-537 -541 0
-537 -542 0
-537 -543 0
-537 -544 0
-537 -545 0
-537 -546 0
-537 -547 0
-537 -548 0
-537 -549 0
-537 -550 0
-537 -551 0
-537 -552 0
-537 -553 0
-537 -554 0
-537 -555 0
-537 -556 0
-537 -557 0
-537 -558 0
-537 -559 0
-537 -560 0
-537 -561 0
-537 -562 0
-537 -563 0
-537 -564 0
-537 -565 0
-537 -566 0
-537 -567 0
-537 -568 0
-537 -569 0
-537 -570 0
-537 -571 0
-537 -572 0
-537 -573 0
-537 -574 0
-537 -575 0
-537 -576 0
-537 -577 0
-537 -578 0
-537 -579 0
-537 -580 0
-537 -581 0
-537 -582 0
-538 -539 0
-538 -540 0
-538 -541 0
-538 -542 0
-538 -543 0
-538 -544 0
-538 -545 0
-538 -546 0
-538 -547 0
-538 -548 0
-538 -549 0
-538 -550 0
-538 -551 0
-538 -552 0
-538 -553 0
-538 -554 0
-538 -555 0
-538 -556 0
-538 -557 0
-538 -558 0
-538 -559 0
-538 -560 0
-538 -561 0
-538 -562 0
-538 -563 0
-538 -564 0
-538 -565 0
-538 -566 0
-538 -567 0
-538 -568 0
-538 -569 0
-538 -570 0
-538 -571 0
-538 -572 0
-538 -573 0
-538 -574 0
-538 -575 0
-538 -576 0
-538 -577 0
-538 -578 0
-538 -579 0
-538 -580 0
-538 -581 0
-538 -582 0
-539 -540 0
-539 -541 0
-539 -542 0
-539 -543 0
-539 -544 0
-539 -545 0
-539 -546 0
-539 -547 0
-539 -548 0
-539 -549 0
-539 -550 0
-539 -551 0
-539 -552 0
-539 -553 0
-539 -554 0
-539 -555 0
-539 -556 0
-539 -557 0
-539 -558 0
-539 -559 0
-539 -560 0
-539 -561 0
-539 -562 0
-539 -563 0
-539 -564 0
-539 -565 0
-539 -566 0
-539 -567 0
-539 -568 0
-539 -569 0
-539 -570 0
-539 -571 0
-539 -572 0
-539 -573 0
-539 -574 0
-539 -575 0
-539 -576 0
-539 -577 0
-539 -578 0
-539 -579 0
-539 -580 0
-539 -581 0
-539 -582 0
-540 -541 0
-540 -542 0
-540 -543 0
-540 -544 0
-540 -545 0
-540 -546 0
-540 -547 0
-540 -548 0
-540 -549 0
-540 -550 0
-540 -551 0
-540 -552 0
-540 -553 0
-540 -554 0
-540 -555 0
-540 -556 0
-540 -557 0
-540 -558 0
-540 -559 0
-540 -560 0
-540 -561 0
-540 -562 0
-540 -563 0
-540 -564 0
-540 -565 0
-540 -566 0
-540 -567 0
-540 -568 0
-540 -569 0
-540 -570 0
-540 -571 0
-540 -572 0
-540 -573 0
-540 -574 0
-540 -575 0
-540 -576 0
-540 -577 0
-540 -578 0
-540 -579 0
-540 -580 0
-540 -581 0
-540 -582 0
-541 -542 0
-541 -543 0
-541 -544 0
-541 -545 0
-541 -546 0
-541 -547 0
-541 -548 0
-541 -549 0
-541 -550 0
-541 -551 0
-541 -552 0
-541 -553 0
-541 -554 0
-541 -555 0
-541 -556 0
-541 -557 0
-541 -558 0
-541 -559 0
-541 -560 0
-541 -561 0
-541 -562 0
-541 -563 0
-541 -564 0
-541 -565 0
-541 -566 0
-541 -567 0
-541 -568 0
-541 -569 0
-541 -570 0
-541 -571 0
-541 -572 0
-541 -573 0
-541 -574 0
-541 -575 0
-541 -576 0
-541 -577 0
-541 -578 0
-541 -579 0
-541 -580 0
-541 -581 0
-541 -582 0
-542 -543 0
-542 -544 0
-542 -545 0
-542 -546 0
-542 -547 0
-542 -548 0
-542 -549 0
-542 -550 0
-542 -551 0
-542 -552 0
-542 -553 0
-542 -554 0
-542 -555 0
-542 -556 0
-542 -557 0
-542 -558 0
-542 -559 0
-542 -560 0
-542 -561 0
-542 -562 0
-542 -563 0
-542 -564 0
-542 -565 0
-542 -566 0
-542 -567 0
-542 -568 0
-542 -569 0
-542 -570 0
-542 -571 0
-542 -572 0
-542 -573 0
-542 -574 0
-542 -575 0
-542 -576 0
-542 -577 0
-542 -578 0
-542 -579 0
-542 -580 0
-542 -581 0
-542 -582 0
-543 -544 0
-543 -545 0
-543 -546 0
-543 -547 0
-543 -548 0
-543 -549 0
-543 -550 0
-543 -551 0
-543 -552 0
-543 -553 0
-543 -554 0
-543 -555 0
-543 -556 0
-543 -557 0
-543 -558 0
-543 -559 0
-543 -560 0
-543 -561 0
-543 -562 0
-543 -563 0
-543 -564 0
-543 -565 0
-543 -566 0
-543 -567 0
-543 -568 0
-543 -569 0
-543 -570 0
-543 -571 0
-543 -572 0
-543 -573 0
-543 -574 0
-543 -575 0
-543 -576 0
-543 -577 0
-543 -578 0
-543 -579 0
-543 -580 0
-543 -581 0
-543 -582 0
-544 -545 0
-544 -546 0
-544 -547 0
-544 -548 0
-544 -549 0
-544 -550 0
-544 -551 0
-544 -552 0
-544 -553 0
-544 -554 0
-544 -555 0
-544 -556 0
-544 -557 0
-544 -558 0
-544 -559 0
-544 -560 0
-544 -561 0
-544 -562 0
-544 -563 0
-544 -564 0
-544 -565 0
-544 -566 0
-544 -567 0
-544 -568 0
-544 -569 0
-544 -570 0
-544 -571 0
-544 -572 0
-544 -573 0
-544 -574 0
-544 -575 0
-544 -576 0
-544 -577 0
-544 -578 0
-544 -579 0
-544 -580 0
-544 -581 0
-544 -582 0
-545 -546 0
-545 -547 0
-545 -548 0
-545 -549 0
-545 -550 0
-545 -551 0
-545 -552 0
-545 -553 0
-545 -554 0
-545 -555 0
-545 -556 0
-545 -557 0
-545 -558 0
-545 -559 0
-545 -560 0
-545 -561 0
-545 -562 0
-545 -563 0
-545 -564 0
-545 -565 0
-545 -566 0
-545 -567 0
-545 -568 0
-545 -569 0
-545 -570 0
-545 -571 0
-545 -572 0
-545 -573 0
-545 -574 0
-545 -575 0
-545 -576 0
-545 -577 0
-545 -578 0
-545 -579 0
-545 -580 0
-545 -581 0
-545 -582 0
-546 -547 0
-546 -548 0
-546 -549 0
-546 -550 0
-546 -551 0
-546 -552 0
-546 -553 0
-546 -554 0
-546 -555 0
-546 -556 0
-546 -557 0
-546 -558 0
-546 -559 0
-546 -560 0
-546 -561 0
-546 -562 0
-546 -563 0
-546 -564 0
-546 -565 0
-546 -566 0
-546 -567 0
-546 -568 0
-546 -569 0
-546 -570 0
-546 -571 0
-546 -572 0
-546 -573 0
-546 -574 0
-546 -575 0
-546 -576 0
-546 -577 0
-546 -578 0
-546 -579 0
-546 -580 0
-546 -581 0
-546 -582 0
-547 -548 0
-547 -549 0
-547 -550 0
-547 -551 0
-547 -552 0
-547 -553 0
-547 -554 0
-547 -555 0
-547 -556 0
-547 -557 0
-547 -558 0
-547 -559 0
-547 -560 0
-547 -561 0
-547 -562 0
-547 -563 0
-547 -564 0
-547 -565 0
-547 -566 0
-547 -567 0
-547 -568 0
-547 -569 0
-547 -570 0
-547 -571 0
-547 -572 0
-547 -573 0
-547 -574 0
-547 -575 0
-547 -576 0
-547 -577 0
-547 -578 0
-547 -579 0
-547 -580 0
-547 -581 0
-547 -582 0
-548 -549 0
-548 -550 0
-548 -551 0
-548 -552 0
-548 -553 0
-548 -554 0
-548 -555 0
-548 -556 0
-548 -557 0
-548 -558 0
-548 -559 0
-548 -560 0
-548 -561 0
-548 -562 0
-548 -563 0
-548 -564 0
-548 -565 0
-548 -566 0
-548 -567 0
-548 -568 0
-548 -569 0
-548 -570 0
-548 -571 0
-548 -572 0
-548 -573 0
-548 -574 0
-548 -575 0
-548 -576 0
-548 -577 0
-548 -578 0
-548 -579 0
-548 -580 0
-548 -581 0
-548 -582 0
-549 -550 0
-549 -551 0
-549 -552 0
-549 -553 0
-549 -554 0
-549 -555 0
-549 -556 0
-549 -557 0
-549 -558 0
-549 -559 0
-549 -560 0
-549 -561 0
-549 -562 0
-549 -563 0
-549 -564 0
-549 -565 0
-549 -566 0
-549 -567 0
-549 -568 0
-549 -569 0
-549 -570 0
-549 -571 0
-549 -572 0
-549 -573 0
-549 -574 0
-549 -575 0
-549 -576 0
-549 -577 0
-549 -578 0
-549 -579 0
-549 -580 0
-549 -581 0
-549 -582 0
-550 -551 0
-550 -552 0
-550 -553 0
-550 -554 0
-550 -555 0
-550 -556 0
-550 -557 0
-550 -558 0
-550 -559 0
-550 -560 0
-550 -561 0
-550 -562 0
-550 -563 0
-550 -564 0
-550 -565 0
-550 -566 0
-550 -567 0
-550 -568 0
-550 -569 0
-550 -570 0
-550 -571 0
-550 -572 0
-550 -573 0
-550 -574 0
-550 -575 0
-550 -576 0
-550 -577 0
-550 -578 0
-550 -579 0
-550 -580 0
-550 -581 0
-550 -582 0
-551 -552 0
-551 -553 0
-551 -554 0
-551 -555 0
-551 -556 0
-551 -557 0
-551 -558 0
-551 -559 0
-551 -560 0
-551 -561 0
-551 -562 0
-551 -563 0
-551 -564 0
-551 -565 0
-551 -566 0
-551 -567 0
-551 -568 0
-551 -569 0
-551 -570 0
-551 -571 0
-551 -572 0
-551 -573 0
-551 -574 0
-551 -575 0
-551 -576 0
-551 -577 0
-551 -578 0
-551 -579 0
-551 -580 0
-551 -581 0
-551 -582 0
-552 -553 0
-552 -554 0
-552 -555 0
-552 -556 0
-552 -557 0
-552 -558 0
-552 -559 0
-552 -560 0
-552 -561 0
-552 -562 0
-552 -563 0
-552 -564 0
-552 -565 0
-552 -566 0
-552 -567 0
-552 -568 0
-552 -569 0
-552 -570 0
-552 -571 0
-552 -572 0
-552 -573 0
-552 -574 0
-552 -575 0
-552 -576 0
-552 -577 0
-552 -578 0
-552 -579 0
-552 -580 0
-552 -581 0
-552 -582 0
-553 -554 0
-553 -555 0
-553 -556 0
-553 -557 0
-553 -558 0
-553 -559 0
-553 -560 0
-553 -561 0
-553 -562 0
-553 -563 0
-553 -564 0
-553 -565 0
-553 -566 0
-553 -567 0
-553 -568 0
-553 -569 0
-553 -570 0
-553 -571 0
-553 -572 0
-553 -573 0
-553 -574 0
-553 -575 0
-553 -576 0
-553 -577 0
-553 -578 0
-553 -579 0
-553 -580 0
-553 -581 0
-553 -582 0
-554 -555 0
-554 -556 0
-554 -557 0
-554 -558 0
-554 -559 0
-554 -560 0
-554 -561 0
-554 -562 0
-554 -563 0
-554 -564 0
-554 -565 0
-554 -566 0
-554 -567 0
-554 -568 0
-554 -569 0
-554 -570 0
-554 -571 0
-554 -572 0
-554 -573 0
-554 -574 0
-554 -575 0
-554 -576 0
-554 -577 0
-554 -578 0
-554 -579 0
-554 -580 0
-554 -581 0
-554 -582 0
-555 -556 0
-555 -557 0
-555 -558 0
-555 -559 0
-555 -560 0
-555 -561 0
-555 -562 0
-555 -563 0
-555 -564 0
-555 -565 0
-555 -566 0
-555 -567 0
-555 -568 0
-555 -569 0
-555 -570 0
-555 -571 0
-555 -572 0
-555 -573 0
-555 -574 0
-555 -575 0
-555 -576 0
-555 -577 0
-555 -578 0
-555 -579 0
-555 -580 0
-555 -581 0
-555 -582 0
-556 -557 0
-556 -558 0
-556 -559 0
-556 -560 0
-556 -561 0
-556 -562 0
-556 -563 0
-556 -564 0
-556 -565 0
-556 -566 0
-556 -567 0
-556 -568 0
-556 -569 0
-556 -570 0
-556 -571 0
-556 -572 0
-556 -573 0
-556 -574 0
-556 -575 0
-556 -576 0
-556 -577 0
-556 -578 0
-556 -579 0
-556 -580 0
-556 -581 0
-556 -582 0
-557 -558 0
-557 -559 0
-557 -560 0
-557 -561 0
-557 -562 0
-557 -563 0
-557 -564 0
-557 -565 0
-557 -566 0
-557 -567 0
-557 -568 0
-557 -569 0
-557 -570 0
-557 -571 0
-557 -572 0
-557 -573 0
-557 -574 0
-557 -575 0
-557 -576 0
-557 -577 0
-557 -578 0
-557 -579 0
-557 -580 0
-557 -581 0
-557 -582 0
-558 -559 0
-558 -560 0
-558 -561 0
-558 -562 0
-558 -563 0
-558 -564 0
-558 -565 0
-558 -566 0
-558 -567 0
-558 -568 0
-558 -569 0
-558 -570 0
-558 -571 0
-558 -572 0
-558 -573 0
-558 -574 0
-558 -575 0
-558 -576 0
-558 -577 0
-558 -578 0
-558 -579 0
-558 -580 0
-558 -581 0
-558 -582 0
-559 -560 0
-559 -561 0
-559 -562 0
-559 -563 0
-559 -564 0
-559 -565 0
-559 -566 0
-559 -567 0
-559 -568 0
-559 -569 0
-559 -570 0
-559 -571 0
-559 -572 0
-559 -573 0
-559 -574 0
-559 -575 0
-559 -576 0
-559 -577 0
-559 -578 0
-559 -579 0
-559 -580 0
-559 -581 0
-559 -582 0
-560 -561 0
-560 -562 0
-560 -563 0
-560 -564 0
-560 -565 0
-560 -566 0
-560 -567 0
-560 -568 0
-560 -569 0
-560 -570 0
-560 -571 0
-560 -572 0
-560 -573 0
-560 -574 0
-560 -575 0
-560 -576 0
-560 -577 0
-560 -578 0
-560 -579 0
-560 -580 0
-560 -581 0
-560 -582 0
-561 -562 0
-561 -563 0
-561 -564 0
-561 -565 0
-561 -566 0
-561 -567 0
-561 -568 0
-561 -569 0
-561 -570 0
-561 -571 0
-561 -572 0
-561 -573 0
-561 -574 0
-561 -575 0
-561 -576 0
-561 -577 0
-561 -578 0
-561 -579 0
-561 -580 0
-561 -581 0
-561 -582 0
-562 -563 0
-562 -564 0
-562 -565 0
-562 -566 0
-562 -567 0
-562 -568 0
-562 -569 0
-562 -570 0
-562 -571 0
-562 -572 0
-562 -573 0
-562 -574 0
-562 -575 0
-562 -576 0
-562 -577 0
-562 -578 0
-562 -579 0
-562 -580 0
-562 -581 0
-562 -582 0
-563 -564 0
-563 -565 0
-563 -566 0
-563 -567 0
-563 -568 0
-563 -569 0
-563 -570 0
-563 -571 0
-563 -572 0
-563 -573 0
-563 -574 0
-563 -575 0
-563 -576 0
-563 -577 0
-563 -578 0
-563 -579 0
-563 -580 0
-563 -581 0
-563 -582 0
-564 -565 0
-564 -566 0
-564 -567 0
-564 -568 0
-564 -569 0
-564 -570 0
-564 -571 0
-564 -572 0
-564 -573 0
-564 -574 0
-564 -575 0
-564 -576 0
-564 -577 0
-564 -578 0
-564 -579 0
-564 -580 0
-564 -581 0
-564 -582 0
-565 -566 0
-565 -567 0
-565 -568 0
-565 -569 0
-565 -570 0
-565 -571 0
-565 -572 0
-565 -573 0
-565 -574 0
-565 -575 0
-565 -576 0
-565 -577 0
-565 -578 0
-565 -579 0
-565 -580 0
-565 -581 0
-565 -582 0
-566 -567 0
-566 -568 0
-566 -569 0
-566 -570 0
-566 -571 0
-566 -572 0
-566 -573 0
-566 -574 0
-566 -575 0
-566 -576 0
-566 -577 0
-566 -578 0
-566 -579 0
-566 -580 0
-566 -581 0
-566 -582 0
-567 -568 0
-567 -569 0
-567 -570 0
-567 -571 0
-567 -572 0
-567 -573 0
-567 -574 0
-567 -575 0
-567 -576 0
-567 -577 0
-567 -578 0
-567 -579 0
-567 -580 0
-567 -581 0
-567 -582 0
-568 -569 0
-568 -570 0
-568 -571 0
-568 -572 0
-568 -573 0
-568 -574 0
-568 -575 0
-568 -576 0
-568 -577 0
-568 -578 0
-568 -579 0
-568 -580 0
-568 -581 0
-568 -582 0
-569 -570 0
-569 -571 0
-569 -572 0
-569 -573 0
-569 -574 0
-569 -575 0
-569 -576 0
-569 -577 0
-569 -578 0
-569 -579 0
-569 -580 0
-569 -581 0
-569 -582 0
-570 -571 0
-570 -572 0
-570 -573 0
-570 -574 0
-570 -575 0
-570 -576 0
-570 -577 0
-570 -578 0
-570 -579 0
-570 -580 0
-570 -581 0
-570 -582 0
-571 -572 0
-571 -573 0
-571 -574 0
-571 -575 0
-571 -576 0
-571 -577 0
-571 -578 0
-571 -579 0
-571 -580 0
-571 -581 0
-571 -582 0
-572 -573 0
-572 -574 0
-572 -575 0
-572 -576 0
-572 -577 0
-572 -578 0
-572 -579 0
-572 -580 0
-572 -581 0
-572 -582 0
-573 -574 0
-573 -575 0
-573 -576 0
-573 -577 0
-573 -578 0
-573 -579 0
-573 -580 0
-573 -581 0
-573 -582 0
-574 -575 0
-574 -576 0
-574 -577 0
-574 -578 0
-574 -579 0
-574 -580 0
-574 -581 0
-574 -582 0
-575 -576 0
-575 -577 0
-575 -578 0
-575 -579 0
-575 -580 0
-575 -581 0
-575 -582 0
-576 -577 0
-576 -578 0
-576 -579 0
-576 -580 0
-576 -581 0
-576 -582 0
-577 -578 0
-577 -579 0
-577 -580 0
-577 -581 0
-577 -582 0
-578 -579 0
-578 -580 0
-578 -581 0
-578 -582 0
-579 -580 0
-579 -581 0
-579 -582 0
-580 -581 0
-580 -582 0
-581 -582 0
583 584 585 586 587 588 589 590 591 592 593 594 595 596 597 598 599 600 601 602 603 604 605 606 607 608 609 610 611 612 613 614 615 616 617 618 619 620 621 622 623 624 625 626 627 628 629 630 631 632 633 634 635 636 637 638 639 640 641 642 643 644 645 646 647 648 649 650 651 652 653 654 655 656 657 658 659 660 661 662 663 664 665 666 0
-583 -584 0
-583 -585 0
-583 -586 0
-583 -587 0
-583 -588 0
-583 -589 0
-583 -590 0
-583 -591 0
-583 -592 0
-583 -593 0
-583 -594 0
-583 -595 0
-583 -596 0
-583 -597 0
-583 -598 0
-583 -599 0
-583 -600 0
-583 -601 0
-583 -602 0
-583 -603 0
-583 -604 0
-583 -605 0
-583 -606 0
-583 -607 0
-583 -608 0
-583 -609 0
-583 -610 0
-583 -611 0
-583 -612 0
-583 -613 0
-583 -614 0
-583 -615 0
-583 -616 0
-583 -617 0
-583 -618 0
-583 -619 0
-583 -620 0
-583 -621 0
-583 -622 0
-583 -623 0
-583 -624 0
-583 -625 0
-583 -626 0
-583 -627 0
-583 -628 0
-583 -629 0
-583 -630 0
-583 -631 0
-583 -632 0
-583 -633 0
-583 -634 0
-583 -635 0
-583 -636 0
-583 -637 0
-583 -638 0
-583 -639 0
-583 -640 0
-583 -641 0
-583 -642 0
-583 -643 0
-583 -644 0
-583 -645 0
-583 -646 0
-583 -647 0
-583 -648 0
-583 -649 0
-583 -650 0
-583 -651 0
-583 -652 0
-583 -653 0
-583 -654 0
-583 -655 0
-583 -656 0
-583 -657 0
-583 -658 0
-583 -659 0
-583 -660 0
-583 -661 0
-583 -662 0
-583 -663 0
-583 -664 0
-583 -665 0
-583 -666 0
-584 -585 0
-584 -586 0
-584 -587 0
-584 -588 0
-584 -589 0
-584 -590 0
-584 -591 0
-584 -592 0
-584 -593 0
-584 -594 0
-584 -595 0
-584 -596 0
-584 -597 0
-584 -598 0
-584 -599 0
-584 -600 0
-584 -601 0
-584 -602 0
-584 -603 0
-584 -604 0
-584 -605 0
-584 -606 0
-584 -607 0
-584 -608 0
-584 -609 0
-584 -610 0
-584 -611 0
-584 -612 0
-584 -613 0
-584 -614 0
-584 -615 0
-584 -616 0
-584 -617 0
-584 -618 0
-584 -619 0
-584 -620 0
-584 -621 0
-584 -622 0
-584 -623 0
-584 -624 0
-584 -625 0
-584 -626 0
-584 -627 0
-584 -628 0
-584 -629 0
-584 -630 0
-584 -631 0
-584 -632 0
-584 -633 0
-584 -634 0
-584 -635 0
-584 -636 0
-584 -637 0
-584 -638 0
-584 -639 0
-584 -640 0
-584 -641 0
-584 -642 0
-584 -643 0
-584 -644 0
-584 -645 0
-584 -646 0
-584 -647 0
-584 -648 0
-584 -649 0
-584 -650 0
-584 -651 0
-584 -652 0
-584 -653 0
-584 -654 0
-584 -655 0
-584 -656 0
-584 -657 0
-584 -658 0
-584 -659 0
-584 -660 0
-584 -661 0
-584 -662 0
-584 -663 0
-584 -664 0
-584 -665 0
-584 -666 0
-585 -586 0
-585 -587 0
-585 -588 0
-585 -589 0
-585 -590 0
-585 -591 0
-585 -592 0
-585 -593 0
-585 -594 0
-585 -595 0
-585 -596 0
-585 -597 0
-585 -598 0
-585 -599 0
-585 -600 0
-585 -601 0
-585 -602 0
-585 -603 0
-585 -604 0
-585 -605 0
-585 -606 0
-585 -607 0
-585 -608 0
-585 -609 0
-585 -610 0
-585 -611 0
-585 -612 0
-585 -613 0
-585 -614 0
-585 -615 0
-585 -616 0
-585 -617 0
-585 -618 0
-585 -619 0
-585 -620 0
-585 -621 0
-585 -622 0
-585 -623 0
-585 -624 0
-585 -625 0
-585 -626 0
-585 -627 0
-585 -628 0
-585 -629 0
-585 -630 0
-585 -631 0
-585 -632 0
-585 -633 0
-585 -634 0
-585 -635 0
-585 -636 0
-585 -637 0
-585 -638 0
-585 -639 0
-585 -640 0
-585 -641 0
-585 -642 0
-585 -643 0
-585 -644 0
-585 -645 0
-585 -646 0
-585 -647 0
-585 -648 0
-585 -649 0
-585 -650 0
-585 -651 0
-585 -652 0
-585 -653 0
-585 -654 0
-585 -655 0
-585 -656 0
-585 -657 0
-585 -658 0
-585 -659 0
-585 -660 0
-585 -661 0
-585 -662 0
-585 -663 0
-585 -664 0
-585 -665 0
-585 -666 0
-586 -587 0
-586 -588 0
-586 -589 0
-586 -590 0
-586 -591 0
-586 -592 0
-586 -593 0
-586 -594 0
-586 -595 0
-586 -596 0
-586 -597 0
-586 -598 0
-586 -599 0
-586 -600 0
-586 -601 0
-586 -602 0
-586 -603 0
-586 -604 0
-586 -605 0
-586 -606 0
-586 -607 0
-586 -608 0
-586 -609 0
-586 -610 0
-586 -611 0
-586 -612 0
-586 -613 0
-586 -614 0
-586 -615 0
-586 -616 0
-586 -617 0
-586 -618 0
-586 -619 0
-586 -620 0
-586 -621 0
-586 -622 0
-586 -623 0
-586 -624 0
-586 -625 0
-586 -626 0
-586 -627 0
-586 -628 0
-586 -629 0
-586 -630 0
-586 -631 0
-586 -632 0
-586 -633 0
-586 -634 0
-586 -635 0
-586 -636 0
-586 -637 0
-586 -638 0
-586 -639 0
-586 -640 0
-586 -641 0
-586 -642 0
-586 -643 0
-586 -644 0
-586 -645 0
-586 -646 0
-586 -647 0
-586 -648 0
-586 -649 0
-586 -650 0
-586 -651 0
-586 -652 0
-586 -653 0
-586 -654 0
-586 -655 0
-586 -656 0
-586 -657 0
-586 -658 0
-586 -659 0
-586 -660 0
-586 -661 0
-586 -662 0
-586 -663 0
-586 -664 0
-586 -665 0
-586 -666 0
-587 -588 0
-587 -589 0
-587 -590 0
-587 -591 0
-587 -592 0
-587 -593 0
-587 -594 0
-587 -595 0
-587 -596 0
-587 -597 0
-587 -598 0
-587 -599 0
-587 -600 0
-587 -601 0
-587 -602 0
-587 -603 0
-587 -604 0
-587 -605 0
-587 -606 0
-587 -607 0
-587 -608 0
-587 -609 0
-587 -610 0
-587 -611 0
-587 -612 0
-587 -613 0
-587 -614 0
-587 -615 0
-587 -616 0
-587 -617 0
-587 -618 0
-587 -619 0
-587 -620 0
-587 -621 0
-587 -622 0
-587 -623 0
-587 -624 0
-587 -625 0
-587 -626 0
-587 -627 0
-587 -628 0
-587 -629 0
-587 -630 0
-587 -631 0
-587 -632 0
-587 -633 0
-587 -634 0
-587 -635 0
-587 -636 0
-587 -637 0
-587 -638 0
-587 -639 0
-587 -640 0
-587 -641 0
-587 -642 0
-587 -643 0
-587 -644 0
-587 -645 0
-587 -646 0
-587 -647 0
-587 -648 0
-587 -649 0
-587 -650 0
-587 -651 0
-587 -652 0
-587 -653 0
-587 -654 0
-587 -655 0
-587 -656 0
-587 -657 0
-587 -658 0
-587 -659 0
-587 -660 0
-587 -661 0
-587 -662 0
-587 -663 0
-587 -664 0
-587 -665 0
-587 -666 0
-588 -589 0
-588 -590 0
-588 -591 0
-588 -592 0
-588 -593 0
-588 -594 0
-588 -595 0
-588 -596 0
-588 -597 0
-588 -598 0
-588 -599 0
-588 -600 0
-588 -601 0
-588 -602 0
-588 -603 0
-588 -604 0
-588 -605 0
-588 -606 0
-588 -607 0
-588 -608 0
-588 -609 0
-588 -610 0
-588 -611 0
-588 -612 0
-588 -613 0
-588 -614 0
-588 -615 0
-588 -616 0
-588 -617 0
-588 -618 0
-588 -619 0
-588 -620 0
-588 -621 0
-588 -622 0
-588 -623 0
-588 -624 0
-588 -625 0
-588 -626 0
-588 -627 0
-588 -628 0
-588 -629 0
-588 -630 0
-588 -631 0
-588 -632 0
-588 -633 0
-588 -634 0
-588 -635 0
-588 -636 0
-588 -637 0
-588 -638 0
-588 -639 0
-588 -640 0
-588 -641 0
-588 -642 0
-588 -643 0
-588 -644 0
-588 -645 0
-588 -646 0
-588 -647 0
-588 -648 0
-588 -649 0
-588 -650 0
-588 -651 0
-588 -652 0
-588 -653 0
-588 -654 0
-588 -655 0
-588 -656 0
-588 -657 0
-588 -658 0
-588 -659 0
-588 -660 0
-588 -661 0
-588 -662 0
-588 -663 0
-588 -664 0
-588 -665 0
-588 -666 0
-589 -590 0
-589 -591 0
-589 -592 0
-589 -593 0
-589 -594 0
-589 -595 0
-589 -596 0
-589 -597 0
-589 -598 0
-589 -599 0
-589 -600 0
-589 -601 0
-589 -602 0
-589 -603 0
-589 -604 0
-589 -605 0
-589 -606 0
-589 -607 0
-589 -608 0
-589 -609 0
-589 -610 0
-589 -611 0
-589 -612 0
-589 -613 0
-589 -614 0
-589 -615 0
-589 -616 0
-589 -617 0
-589 -618 0
-589 -619 0
-589 -620 0
-589 -621 0
-589 -622 0
-589 -623 0
-589 -624 0
-589 -625 0
-589 -626 0
-589 -627 0
-589 -628 0
-589 -629 0
-589 -630 0
-589 -631 0
-589 -632 0
-589 -633 0
-589 -634 0
-589 -635 0
-589 -636 0
-589 -637 0
-589 -638 0
-589 -639 0
-589 -640 0
-589 -641 0
-589 -642 0
-589 -643 0
-589 -644 0
-589 -645 0
-589 -646 0
-589 -647 0
-589 -648 0
-589 -649 0
-589 -650 0
-589 -651 0
-589 -652 0
-589 -653 0
-589 -654 0
-589 -655 0
-589 -656 0
-589 -657 0
-589 -658 0
-589 -659 0
-589 -660 0
-589 -661 0
-589 -662 0
-589 -663 0
-589 -664 0
-589 -665 0
-589 -666 0
-590 -591 0
-590 -592 0
-590 -593 0
-590 -594 0
-590 -595 0
-590 -596 0
-590 -597 0
-590 -598 0
-590 -599 0
-590 -600 0
-590 -601 0
-590 -602 0
-590 -603 0
-590 -604 0
-590 -605 0
-590 -606 0
-590 -607 0
-590 -608 0
-590 -609 0
-590 -610 0
-590 -611 0
-590 -612 0
-590 -613 0
-590 -614 0
-590 -615 0
-590 -616 0
-590 -617 0
-590 -618 0
-590 -619 0
-590 -620 0
-590 -621 0
-590 -622 0
-590 -623 0
-590 -624 0
-590 -625 0
-590 -626 0
-590 -627 0
-590 -628 0
-590 -629 0
-590 -630 0
-590 -631 0
-590 -632 0
-590 -633 0
-590 -634 0
-590 -635 0
-590 -636 0
-590 -637 0
-590 -638 0
-590 -639 0
-590 -640 0
-590 -641 0
-590 -642 0
-590 -643 0
-590 -644 0
-590 -645 0
-590 -646 0
-590 -647 0
-590 -648 0
-590 -649 0
-590 -650 0
-590 -651 0
-590 -652 0
-590 -653 0
-590 -654 0
-590 -655 0
-590 -656 0
-590 -657 0
-590 -658 0
-590 -659 0
-590 -660 0
-590 -661 0
-590 -662 0
-590 -663 0
-590 -664 0
-590 -665 0
-590 -666 0
-591 -592 0
-591 -593 0
-591 -594 0
-591 -595 0
-591 -596 0
-591 -597 0
-591 -598 0
-591 -599 0
-591 -600 0
-591 -601 0
-591 -602 0
-591 -603 0
-591 -604 0
-591 -605 0
-591 -606 0
-591 -607 0
-591 -608 0
-591 -609 0
-591 -610 0
-591 -611 0
-591 -612 0
-591 -613 0
-591 -614 0
-591 -615 0
-591 -616 0
-591 -617 0
-591 -618 0
-591 -619 0
-591 -620 0
-591 -621 0
-591 -622 0
-591 -623 0
-591 -624 0
-591 -625 0
-591 -626 0
-591 -627 0
-591 -628 0
-591 -629 0
-591 -630 0
-591 -631 0
-591 -632 0
-591 -633 0
-591 -634 0
-591 -635 0
-591 -636 0
-591 -637 0
-591 -638 0
-591 -639 0
-591 -640 0
-591 -641 0
-591 -642 0
-591 -643 0
-591 -644 0
-591 -645 0
-591 -646 0
-591 -647 0
-591 -648 0
-591 -649 0
-591 -650 0
-591 -651 0
-591 -652 0
-591 -653 0
-591 -654 0
-591 -655 0
-591 -656 0
-591 -657 0
-591 -658 0
-591 -659 0
-591 -660 0
-591 -661 0
-591 -662 0
-591 -663 0
-591 -664 0
-591 -665 0
-591 -666 0
-592 -593 0
-592 -594 0
-592 -595 0
-592 -596 0
-592 -597 0
-592 -598 0
-592 -599 0
-592 -600 0
-592 -601 0
-592 -602 0
-592 -603 0
-592 -604 0
-592 -605 0
-592 -606 0
-592 -607 0
-592 -608 0
-592 -609 0
-592 -610 0
-592 -611 0
-592 -612 0
-592 -613 0
-592 -614 0
-592 -615 0
-592 -616 0
-592 -617 0
-592 -618 0
-592 -619 0
-592 -620 0
-592 -621 0
-592 -622 0
-592 -623 0
-592 -624 0
-592 -625 0
-592 -626 0
-592 -627 0
-592 -628 0
-592 -629 0
-592 -630 0
-592 -631 0
-592 -632 0
-592 -633 0
-592 -634 0
-592 -635 0
-592 -636 0
-592 -637 0
-592 -638 0
-592 -639 0
-592 -640 0
-592 -641 0
-592 -642 0
-592 -643 0
-592 -644 0
-592 -645 0
-592 -646 0
-592 -647 0
-592 -648 0
-592 -649 0
-592 -650 0
-592 -651 0
-592 -652 0
-592 -653 0
-592 -654 0
-592 -655 0
-592 -656 0
-592 -657 0
-592 -658 0
-592 -659 0
-592 -660 0
-592 -661 0
-592 -662 0
-592 -663 0
-592 -664 0
-592 -665 0
-592 -666 0
-593 -594 0
-593 -595 0
-593 -596 0
-593 -597 0
-593 -598 0
-593 -599 0
-593 -600 0
-593 -601 0
-593 -602 0
-593 -603 0
-593 -604 0
-593 -605 0
-593 -606 0
-593 -607 0
-593 -608 0
-593 -609 0
-593 -610 0
-593 -611 0
-593 -612 0
-593 -613 0
-593 -614 0
-593 -615 0
-593 -616 0
-593 -617 0
-593 -618 0
-593 -619 0
-593 -620 0
-593 -621 0
-593 -622 0
-593 -623 0
-593 -624 0
-593 -625 0
-593 -626 0
-593 -627 0
-593 -628 0
-593 -629 0
-593 -630 0
-593 -631 0
-593 -632 0
-593 -633 0
-593 -634 0
-593 -635 0
-593 -636 0
-593 -637 0
-593 -638 0
-593 -639 0
-593 -640 0
-593 -641 0
-593 -642 0
-593 -643 0
-593 -644 0
-593 -645 0
-593 -646 0
-593 -647 0
-593 -648 0
-593 -649 0
-593 -650 0
-593 -651 0
-593 -652 0
-593 -653 0
-593 -654 0
-593 -655 0
-593 -656 0
-593 -657 0
-593 -658 0
-593 -659 0
-593 -660 0
-593 -661 0
-593 -662 0
-593 -663 0
-593 -664 0
-593 -665 0
-593 -666 0
-594 -595 0
-594 -596 0
-594 -597 0
-594 -598 0
-594 -599 0
-594 -600 0
-594 -601 0
-594 -602 0
-594 -603 0
-594 -604 0
-594 -605 0
-594 -606 0
-594 -607 0
-594 -608 0
-594 -609 0
-594 -610 0
-594 -611 0
-594 -612 0
-594 -613 0
-594 -614 0
-594 -615 0
-594 -616 0
-594 -617 0
-594 -618 0
-594 -619 0
-594 -620 0
-594 -621 0
-594 -622 0
-594 -623 0
-594 -624 0
-594 -625 0
-594 -626 0
-594 -627 0
-594 -628 0
-594 -629 0
-594 -630 0
-594 -631 0
-594 -632 0
-594 -633 0
-594 -634 0
-594 -635 0
-594 -636 0
-594 -637 0
-594 -638 0
-594 -639 0
-594 -640 0
-594 -641 0
-594 -642 0
-594 -643 0
-594 -644 0
-594 -645 0
-594 -646 0
-594 -647 0
-594 -648 0
-594 -649 0
-594 -650 0
-594 -651 0
-594 -652 0
-594 -653 0
-594 -654 0
-594 -655 0
-594 -656 0
-594 -657 0
-594 -658 0
-594 -659 0
-594 -660 0
-594 -661 0
-594 -662 0
-594 -663 0
-594 -664 0
-594 -665 0
-594 -666 0
-595 -596 0
-595 -597 0
-595 -598 0
-595 -599 0
-595 -600 0
-595 -601 0
-595 -602 0
-595 -603 0
-595 -604 0
-595 -605 0
-595 -606 0
-595 -607 0
-595 -608 0
-595 -609 0
-595 -610 0
-595 -611 0
-595 -612 0
-595 -613 0
-595 -614 0
-595 -615 0
-595 -616 0
-595 -617 0
-595 -618 0
-595 -619 0
-595 -620 0
-595 -621 0
-595 -622 0
-595 -623 0
-595 -624 0
-595 -625 0
-595 -626 0
-595 -627 0
-595 -628 0
-595 -629 0
-595 -630 0
-595 -631 0
-595 -632 0
-595 -633 0
-595 -634 0
-595 -635 0
-595 -636 0
-595 -637 0
-595 -638 0
-595 -639 0
-595 -640 0
-595 -641 0
-595 -642 0
-595 -643 0
-595 -644 0
-595 -645 0
-595 -646 0
-595 -647 0
-595 -648 0
-595 -649 0
-595 -650 0
-595 -651 0
-595 -652 0
-595 -653 0
-595 -654 0
-595 -655 0
-595 -656 0
-595 -657 0
-595 -658 0
-595 -659 0
-595 -660 0
-595 -661 0
-595 -662 0
-595 -663 0
-595 -664 0
-595 -665 0
-595 -666 0
-596 -597 0
-596 -598 0
-596 -599 0
-596 -600 0
-596 -601 0
-596 -602 0
-596 -603 0
-596 -604 0
-596 -605 0
-596 -606 0
-596 -607 0
-596 -608 0
-596 -609 0
-596 -610 0
-596 -611 0
-596 -612 0
-596 -613 0
-596 -614 0
-596 -615 0
-596 -616 0
-596 -617 0
-596 -618 0
-596 -619 0
-596 -620 0
-596 -621 0
-596 -622 0
-596 -623 0
-596 -624 0
-596 -625 0
-596 -626 0
-596 -627 0
-596 -628 0
-596 -629 0
-596 -630 0
-596 -631 0
-596 -632 0
-596 -633 0
-596 -634 0
-596 -635 0
-596 -636 0
-596 -637 0
-596 -638 0
-596 -639 0
-596 -640 0
-596 -641 0
-596 -642 0
-596 -643 0
-596 -644 0
-596 -645 0
-596 -646 0
-596 -647 0
-596 -648 0
-596 -649 0
-596 -650 0
-596 -651 0
-596 -652 0
-596 -653 0
-596 -654 0
-596 -655 0
-596 -656 0
-596 -657 0
-596 -658 0
-596 -659 0
-596 -660 0
-596 -661 0
-596 -662 0
-596 -663 0
-596 -664 0
-596 -665 0
-596 -666 0
-597 -598 0
-597 -599 0
-597 -600 0
-597 -601 0
-597 -602 0
-597 -603 0
-597 -604 0
-597 -605 0
-597 -606 0
-597 -607 0
-597 -608 0
-597 -609 0
-597 -610 0
-597 -611 0
-597 -612 0
-597 -613 0
-597 -614 0
-597 -615 0
-597 -616 0
-597 -617 0
-597 -618 0
-597 -619 0
-597 -620 0
-597 -621 0
-597 -622 0
-597 -623 0
-597 -624 0
-597 -625 0
-597 -626 0
-597 -627 0
-597 -628 0
-597 -629 0
-597 -630 0
-597 -631 0
-597 -632 0
-597 -633 0
-597 -634 0
-597 -635 0
-597 -636 0
-597 -637 0
-597 -638 0
-597 -639 0
-597 -640 0
-597 -641 0
-597 -642 0
-597 -643 0
-597 -644 0
-597 -645 0
-597 -646 0
-597 -647 0
-597 -648 0
-597 -649 0
-597 -650 0
-597 -651 0
-597 -652 0
-597 -653 0
-597 -654 0
-597 -655 0
-597 -656 0
-597 -657 0
-597 -658 0
-597 -659 0
-597 -660 0
-597 -661 0
-597 -662 0
-597 -663 0
-597 -664 0
-597 -665 0
-597 -666 0
-598 -599 0
-598 -600 0
-598 -601 0
-598 -602 0
-598 -603 0
-598 -604 0
-598 -605 0
-598 -606 0
-598 -607 0
-598 -608 0
-598 -609 0
-598 -610 0
-598 -611 0
-598 -612 0
-598 -613 0
-598 -614 0
-598 -615 0
-598 -616 0
-598 -617 0
-598 -618 0
-598 -619 0
-598 -620 0
-598 -621 0
-598 -622 0
-598 -623 0
-598 -624 0
-598 -625 0
-598 -626 0
-598 -627 0
-598 -628 0
-598 -629 0
-598 -630 0
-598 -631 0
-598 -632 0
-598 -633 0
-598 -634 0
-598 -635 0
-598 -636 0
-598 -637 0
-598 -638 0
-598 -639 0
-598 -640 0
-598 -641 0
-598 -642 0
-598 -643 0
-598 -644 0
-598 -645 0
-598 -646 0
-598 -647 0
-598 -648 0
-598 -649 0
-598 -650 0
-598 -651 0
-598 -652 0
-598 -653 0
-598 -654 0
-598 -655 0
-598 -656 0
-598 -657 0
-598 -658 0
-598 -659 0
-598 -660 0
-598 -661 0
-598 -662 0
-598 -663 0
-598 -664 0
-598 -665 0
-598 -666 0
-599 -600 0
-599 -601 0
-599 -602 0
-599 -603 0
-599 -604 0
-599 -605 0
-599 -606 0
-599 -607 0
-599 -608 0
-599 -609 0
-599 -610 0
-599 -611 0
-599 -612 0
-599 -613 0
-599 -614 0
-599 -615 0
-599 -616 0
-599 -617 0
-599 -618 0
-599 -619 0
-599 -620 0
-599 -621 0
-599 -622 0
-599 -623 0
-599 -624 0
-599 -625 0
-599 -626 0
-599 -627 0
-599 -628 0
-599 -629 0
-599 -630 0
-599 -631 0
-599 -632 0
-599 -633 0
-599 -634 0
-599 -635 0
-599 -636 0
-599 -637 0
-599 -638 0
-599 -639 0
-599 -640 0
-599 -641 0
-599 -642 0
-599 -643 0
-599 -644 0
-599 -645 0
-599 -646 0
-599 -647 0
-599 -648 0
-599 -649 0
-599 -650 0
-599 -651 0
-599 -652 0
-599 -653 0
-599 -654 0
-599 -655 0
-599 -656 0
-599 -657 0
-599 -658 0
-599 -659 0
-599 -660 0
-599 -661 0
-599 -662 0
-599 -663 0
-599 -664 0
-599 -665 0
-599 -666 0
-600 -601 0
-600 -602 0
-600 -603 0
-600 -604 0
-600 -605 0
-600 -606 0
-600 -607 0
-600 -608 0
-600 -609 0
-600 -610 0
-600 -611 0
-600 -612 0
-600 -613 0
-600 -614 0
-600 -615 0
-600 -616 0
-600 -617 0
-600 -618 0
-600 -619 0
-600 -620 0
-600 -621 0
-600 -622 0
-600 -623 0
-600 -624 0
-600 -625 0
-600 -626 0
-600 -627 0
-600 -628 0
-600 -629 0
-600 -630 0
-600 -631 0
-600 -632 0
-600 -633 0
-600 -634 0
-600 -635 0
-600 -636 0
-600 -637 0
-600 -638 0
-600 -639 0
-600 -640 0
-600 -641 0
-600 -642 0
-600 -643 0
-600 -644 0
-600 -645 0
-600 -646 0
-600 -647 0
-600 -648 0
-600 -649 0
-600 -650 0
-600 -651 0
-600 -652 0
-600 -653 0
-600 -654 0
-600 -655 0
-600 -656 0
-600 -657 0
-600 -658 0
-600 -659 0
-600 -660 0
-600 -661 0
-600 -662 0
-600 -663 0
-600 -664 0
-600 -665 0
-600 -666 0
-601 -602 0
-601 -603 0
-601 -604 0
-601 -605 0
-601 -606 0
-601 -607 0
-601 -608 0
-601 -609 0
-601 -610 0
-601 -611 0
-601 -612 0
-601 -613 0
-601 -614 0
-601 -615 0
-601 -616 0
-601 -617 0
-601 -618 0
-601 -619 0
-601 -620 0
-601 -621 0
-601 -622 0
-601 -623 0
-601 -624 0
-601 -625 0
-601 -626 0
-601 -627 0
-601 -628 0
-601 -629 0
-601 -630 0
-601 -631 0
-601 -632 0
-601 -633 0
-601 -634 0
-601 -635 0
-601 -636 0
-601 -637 0
-601 -638 0
-601 -639 0
-601 -640 0
-601 -641 0
-601 -642 0
-601 -643 0
-601 -644 0
-601 -645 0
-601 -646 0
-601 -647 0
-601 -648 0
-601 -649 0
-601 -650 0
-601 -651 0
-601 -652 0
-601 -653 0
-601 -654 0
-601 -655 0
-601 -656 0
-601 -657 0
-601 -658 0
-601 -659 0
-601 -660 0
-601 -661 0
-601 -662 0
-601 -663 0
-601 -664 0
-601 -665 0
-601 -666 0
-602 -603 0
-602 -604 0
-602 -605 0
-602 -606 0
-602 -607 0
-602 -608 0
-602 -609 0
-602 -610 0
-602 -611 0
-602 -612 0
-602 -613 0
-602 -614 0
-602 -615 0
-602 -616 0
-602 -617 0
-602 -618 0
-602 -619 0
-602 -620 0
-602 -621 0
-602 -622 0
-602 -623 0
-602 -624 0
-602 -625 0
-602 -626 0
-602 -627 0
-602 -628 0
-602 -629 0
-602 -630 0
-602 -631 0
-602 -632 0
-602 -633 0
-602 -634 0
-602 -635 0
-602 -636 0
-602 -637 0
-602 -638 0
-602 -639 0
-602 -640 0
-602 -641 0
-602 -642 0
-602 -643 0
-602 -644 0
-602 -645 0
-602 -646 0
-602 -647 0
-602 -648 0
-602 -649 0
-602 -650 0
-602 -651 0
-602 -652 0
-602 -653 0
-602 -654 0
-602 -655 0
-602 -656 0
-602 -657 0
-602 -658 0
-602 -659 0
-602 -660 0
-602 -661 0
-602 -662 0
-602 -663 0
-602 -664 0
-602 -665 0
-602 -666 0
-603 -604 0
-603 -605 0
-603 -606 0
-603 -607 0
-603 -608 0
-603 -609 0
-603 -610 0
-603 -611 0
-603 -612 0
-603 -613 0
-603 -614 0
-603 -615 0
-603 -616 0
-603 -617 0
-603 -618 0
-603 -619 0
-603 -620 0
-603 -621 0
-603 -622 0
-603 -623 0
-603 -624 0
-603 -625 0
-603 -626 0
-603 -627 0
-603 -628 0
-603 -629 0
-603 -630 0
-603 -631 0
-603 -632 0
-603 -633 0
-603 -634 0
-603 -635 0
-603 -636 0
-603 -637 0
-603 -638 0
-603 -639 0
-603 -640 0
-603 -641 0
-603 -642 0
-603 -643 0
-603 -644 0
-603 -645 0
-603 -646 0
-603 -647 0
-603 -648 0
-603 -649 0
-603 -650 0
-603 -651 0
-603 -652 0
-603 -653 0
-603 -654 0
-603 -655 0
-603 -656 0
-603 -657 0
-603 -658 0
-603 -659 0
-603 -660 0
-603 -661 0
-603 -662 0
-603 -663 0
-603 -664 0
-603 -665 0
-603 -666 0
-604 -605 0
-604 -606 0
-604 -607 0
-604 -608 0
-604 -609 0
-604 -610 0
-604 -611 0
-604 -612 0
-604 -613 0
-604 -614 0
-604 -615 0
-604 -616 0
-604 -617 0
-604 -618 0
-604 -619 0
-604 -620 0
-604 -621 0
-604 -622 0
-604 -623 0
-604 -624 0
-604 -625 0
-604 -626 0
-604 -627 0
-604 -628 0
-604 -629 0
-604 -630 0
-604 -631 0
-604 -632 0
-604 -633 0
-604 -634 0
-604 -635 0
-604 -636 0
-604 -637 0
-604 -638 0
-604 -639 0
-604 -640 0
-604 -641 0
-604 -642 0
-604 -643 0
-604 -644 0
-604 -645 0
-604 -646 0
-604 -647 0
-604 -648 0
-604 -649 0
-604 -650 0
-604 -651 0
-604 -652 0
-604 -653 0
-604 -654 0
-604 -655 0
-604 -656 0
-604 -657 0
-604 -658 0
-604 -659 0
-604 -660 0
-604 -661 0
-604 -662 0
-604 -663 0
-604 -664 0
-604 -665 0
-604 -666 0
-605 -606 0
-605 -607 0
-605 -608 0
-605 -609 0
-605 -610 0
-605 -611 0
-605 -612 0
-605 -613 0
-605 -614 0
-605 -615 0
-605 -616 0
-605 -617 0
-605 -618 0
-605 -619 0
-605 -620 0
-605 -621 0
-605 -622 0
-605 -623 0
-605 -624 0
-605 -625 0
-605 -626 0
-605 -627 0
-605 -628 0
-605 -629 0
-605 -630 0
-605 -631 0
-605 -632 0
-605 -633 0
-605 -634 0
-605 -635 0
-605 -636 0
-605 -637 0
-605 -638 0
-605 -639 0
-605 -640 0
-605 -641 0
-605 -642 0
-605 -643 0
-605 -644 0
-605 -645 0
-605 -646 0
-605 -647 0
-605 -648 0
-605 -649 0
-605 -650 0
-605 -651 0
-605 -652 0
-605 -653 0
-605 -654 0
-605 -655 0
-605 -656 0
-605 -657 0
-605 -658 0
-605 -659 0
-605 -660 0
-605 -661 0
-605 -662 0
-605 -663 0
-605 -664 0
-605 -665 0
-605 -666 0
-606 -607 0
-606 -608 0
-606 -609 0
-606 -610 0
-606 -611 0
-606 -612 0
-606 -613 0
-606 -614 0
-606 -615 0
-606 -616 0
-606 -617 0
-606 -618 0
-606 -619 0
-606 -620 0
-606 -621 0
-606 -622 0
-606 -623 0
-606 -624 0
-606 -625 0
-606 -626 0
-606 -627 0
-606 -628 0
-606 -629 0
-606 -630 0
-606 -631 0
-606 -632 0
-606 -633 0
-606 -634 0
-606 -635 0
-606 -636 0
-606 -637 0
-606 -638 0
-606 -639 0
-606 -640 0
-606 -641 0
-606 -642 0
-606 -643 0
-606 -644 0
-606 -645 0
-606 -646 0
-606 -647 0
-606 -648 0
-606 -649 0
-606 -650 0
-606 -651 0
-606 -652 0
-606 -653 0
-606 -654 0
-606 -655 0
-606 -656 0
-606 -657 0
-606 -658 0
-606 -659 0
-606 -660 0
-606 -661 0
-606 -662 0
-606 -663 0
-606 -664 0
-606 -665 0
-606 -666 0
-607 -608 0
-607 -609 0
-607 -610 0
-607 -611 0
-607 -612 0
-607 -613 0
-607 -614 0
-607 -615 0
-607 -616 0
-607 -617 0
-607 -618 0
-607 -619 0
-607 -620 0
-607 -621 0
-607 -622 0
-607 -623 0
-607 -624 0
-607 -625 0
-607 -626 0
-607 -627 0
-607 -628 0
-607 -629 0
-607 -630 0
-607 -631 0
-607 -632 0
-607 -633 0
-607 -634 0
-607 -635 0
-607 -636 0
-607 -637 0
-607 -638 0
-607 -639 0
-607 -640 0
-607 -641 0
-607 -642 0
-607 -643 0
-607 -644 0
-607 -645 0
-607 -646 0
-607 -647 0
-607 -648 0
-607 -649 0
-607 -650 0
-607 -651 0
-607 -652 0
-607 -653 0
-607 -654 0
-607 -655 0
-607 -656 0
-607 -657 0
-607 -658 0
-607 -659 0
-607 -660 0
-607 -661 0
-607 -662 0
-607 -663 0
-607 -664 0
-607 -665 0
-607 -666 0
-608 -609 0
-608 -610 0
-608 -611 0
-608 -612 0
-608 -613 0
-608 -614 0
-608 -615 0
-608 -616 0
-608 -617 0
-608 -618 0
-608 -619 0
-608 -620 0
-608 -621 0
-608 -622 0
-608 -623 0
-608 -624 0
-608 -625 0
-608 -626 0
-608 -627 0
-608 -628 0
-608 -629 0
-608 -630 0
-608 -631 0
-608 -632 0
-608 -633 0
-608 -634 0
-608 -635 0
-608 -636 0
-608 -637 0
-608 -638 0
-608 -639 0
-608 -640 0
-608 -641 0
-608 -642 0
-608 -643 0
-608 -644 0
-608 -645 0
-608 -646 0
-608 -647 0
-608 -648 0
-608 -649 0
-608 -650 0
-608 -651 0
-608 -652 0
-608 -653 0
-608 -654 0
-608 -655 0
-608 -656 0
-608 -657 0
-608 -658 0
-608 -659 0
-608 -660 0
-608 -661 0
-608 -662 0
-608 -663 0
-608 -664 0
-608 -665 0
-608 -666 0
-609 -610 0
-609 -611 0
-609 -612 0
-609 -613 0
-609 -614 0
-609 -615 0
-609 -616 0
-609 -617 0
-609 -618 0
-609 -619 0
-609 -620 0
-609 -621 0
-609 -622 0
-609 -623 0
-609 -624 0
-609 -625 0
-609 -626 0
-609 -627 0
-609 -628 0
-609 -629 0
-609 -630 0
-609 -631 0
-609 -632 0
-609 -633 0
-609 -634 0
-609 -635 0
-609 -636 0
-609 -637 0
-609 -638 0
-609 -639 0
-609 -640 0
-609 -641 0
-609 -642 0
-609 -643 0
-609 -644 0
-609 -645 0
-609 -646 0
-609 -647 0
-609 -648 0
-609 -649 0
-609 -650 0
-609 -651 0
-609 -652 0
-609 -653 0
-609 -654 0
-609 -655 0
-609 -656 0
-609 -657 0
-609 -658 0
-609 -659 0
-609 -660 0
-609 -661 0
-609 -662 0
-609 -663 0
-609 -664 0
-609 -665 0
-609 -666 0
-610 -611 0
-610 -612 0
-610 -613 0
-610 -614 0
-610 -615 0
-610 -616 0
-610 -617 0
-610 -618 0
-610 -619 0
-610 -620 0
-610 -621 0
-610 -622 0
-610 -623 0
-610 -624 0
-610 -625 0
-610 -626 0
-610 -627 0
-610 -628 0
-610 -629 0
-610 -630 0
-610 -631 0
-610 -632 0
-610 -633 0
-610 -634 0
-610 -635 0
-610 -636 0
-610 -637 0
-610 -638 0
-610 -639 0
-610 -640 0
-610 -641 0
-610 -642 0
-610 -643 0
-610 -644 0
-610 -645 0
-610 -646 0
-610 -647 0
-610 -648 0
-610 -649 0
-610 -650 0
-610 -651 0
-610 -652 0
-610 -653 0
-610 -654 0
-610 -655 0
-610 -656 0
-610 -657 0
-610 -658 0
-610 -659 0
-610 -660 0
-610 -661 0
-610 -662 0
-610 -663 0
-610 -664 0
-610 -665 0
-610 -666 0
-611 -612 0
-611 -613 0
-611 -614 0
-611 -615 0
-611 -616 0
-611 -617 0
-611 -618 0
-611 -619 0
-611 -620 0
-611 -621 0
-611 -622 0
-611 -623 0
-611 -624 0
-611 -625 0
-611 -626 0
-611 -627 0
-611 -628 0
-611 -629 0
-611 -630 0
-611 -631 0
-611 -632 0
-611 -633 0
-611 -634 0
-611 -635 0
-611 -636 0
-611 -637 0
-611 -638 0
-611 -639 0
-611 -640 0
-611 -641 0
-611 -642 0
-611 -643 0
-611 -644 0
-611 -645 0
-611 -646 0
-611 -647 0
-611 -648 0
-611 -649 0
-611 -650 0
-611 -651 0
-611 -652 0
-611 -653 0
-611 -654 0
-611 -655 0
-611 -656 0
-611 -657 0
-611 -658 0
-611 -659 0
-611 -660 0
-611 -661 0
-611 -662 0
-611 -663 0
-611 -664 0
-611 -665 0
-611 -666 0
-612 -613 0
-612 -614 0
-612 -615 0
-612 -616 0
-612 -617 0
-612 -618 0
-612 -619 0
-612 -620 0
-612 -621 0
-612 -622 0
-612 -623 0
-612 -624 0
-612 -625 0
-612 -626 0
-612 -627 0
-612 -628 0
-612 -629 0
-612 -630 0
-612 -631 0
-612 -632 0
-612 -633 0
-612 -634 0
-612 -635 0
-612 -636 0
-612 -637 0
-612 -638 0
-612 -639 0
-612 -640 0
-612 -641 0
-612 -642 0
-612 -643 0
-612 -644 0
-612 -645 0
-612 -646 0
-612 -647 0
-612 -648 0
-612 -649 0
-612 -650 0
-612 -651 0
-612 -652 0
-612 -653 0
-612 -654 0
-612 -655 0
-612 -656 0
-612 -657 0
-612 -658 0
-612 -659 0
-612 -660 0
-612 -661 0
-612 -662 0
-612 -663 0
-612 -664 0
-612 -665 0
-612 -666 0
-613 -614 0
-613 -615 0
-613 -616 0
-613 -617 0
-613 -618 0
-613 -619 0
-613 -620 0
-613 -621 0
-613 -622 0
-613 -623 0
-613 -624 0
-613 -625 0
-613 -626 0
-613 -627 0
-613 -628 0
-613 -629 0
-613 -630 0
-613 -631 0
-613 -632 0
-613 -633 0
-613 -634 0
-613 -635 0
-613 -636 0
-613 -637 0
-613 -638 0
-613 -639 0
-613 -640 0
-613 -641 0
-613 -642 0
-613 -643 0
-613 -644 0
-613 -645 0
-613 -646 0
-613 -647 0
-613 -648 0
-613 -649 0
-613 -650 0
-613 -651 0
-613 -652 0
-613 -653 0
-613 -654 0
-613 -655 0
-613 -656 0
-613 -657 0
-613 -658 0
-613 -659 0
-613 -660 0
-613 -661 0
-613 -662 0
-613 -663 0
-613 -664 0
-613 -665 0
-613 -666 0
-614 -615 0
-614 -616 0
-614 -617 0
-614 -618 0
-614 -619 0
-614 -620 0
-614 -621 0
-614 -622 0
-614 -623 0
-614 -624 0
-614 -625 0
-614 -626 0
-614 -627 0
-614 -628 0
-614 -629 0
-614 -630 0
-614 -631 0
-614 -632 0
-614 -633 0
-614 -634 0
-614 -635 0
-614 -636 0
-614 -637 0
-614 -638 0
-614 -639 0
-614 -640 0
-614 -641 0
-614 -642 0
-614 -643 0
-614 -644 0
-614 -645 0
-614 -646 0
-614 -647 0
-614 -648 0
-614 -649 0
-614 -650 0
-614 -651 0
-614 -652 0
-614 -653 0
-614 -654 0
-614 -655 0
-614 -656 0
-614 -657 0
-614 -658 0
-614 -659 0
-614 -660 0
-614 -661 0
-614 -662 0
-614 -663 0
-614 -664 0
-614 -665 0
-614 -666 0
-615 -616 0
-615 -617 0
-615 -618 0
-615 -619 0
-615 -620 0
-615 -621 0
-615 -622 0
-615 -623 0
-615 -624 0
-615 -625 0
-615 -626 0
-615 -627 0
-615 -628 0
-615 -629 0
-615 -630 0
-615 -631 0
-615 -632 0
-615 -633 0
-615 -634 0
-615 -635 0
-615 -636 0
-615 -637 0
-615 -638 0
-615 -639 0
-615 -640 0
-615 -641 0
-615 -642 0
-615 -643 0
-615 -644 0
-615 -645 0
-615 -646 0
-615 -647 0
-615 -648 0
-615 -649 0
-615 -650 0
-615 -651 0
-615 -652 0
-615 -653 0
-615 -654 0
-615 -655 0
-615 -656 0
-615 -657 0
-615 -658 0
-615 -659 0
-615 -660 0
-615 -661 0
-615 -662 0
-615 -663 0
-615 -664 0
-615 -665 0
-615 -666 0
-616 -617 0
-616 -618 0
-616 -619 0
-616 -620 0
-616 -621 0
-616 -622 0
-616 -623 0
-616 -624 0
-616 -625 0
-616 -626 0
-616 -627 0
-616 -628 0
-616 -629 0
-616 -630 0
-616 -631 0
-616 -632 0
-616 -633 0
-616 -634 0
-616 -635 0
-616 -636 0
-616 -637 0
-616 -638 0
-616 -639 0
-616 -640 0
-616 -641 0
-616 -642 0
-616 -643 0
-616 -644 0
-616 -645 0
-616 -646 0
-616 -647 0
-616 -648 0
-616 -649 0
-616 -650 0
-616 -651 0
-616 -652 0
-616 -653 0
-616 -654 0
-616 -655 0
-616 -656 0
-616 -657 0
-616 -658 0
-616 -659 0
-616 -660 0
-616 -661 0
-616 -662 0
-616 -663 0
-616 -664 0
-616 -665 0
-616 -666 0
-617 -618 0
-617 -619 0
-617 -620 0
-617 -621 0
-617 -622 0
-617 -623 0
-617 -624 0
-617 -625 0
-617 -626 0
-617 -627 0
-617 -628 0
-617 -629 0
-617 -630 0
-617 -631 0
-617 -632 0
-617 -633 0
-617 -634 0
-617 -635 0
-617 -636 0
-617 -637 0
-617 -638 0
-617 -639 0
-617 -640 0
-617 -641 0
-617 -642 0
-617 -643 0
-617 -644 0
-617 -645 0
-617 -646 0
-617 -647 0
-617 -648 0
-617 -649 0
-617 -650 0
-617 -651 0
-617 -652 0
-617 -653 0
-617 -654 0
-617 -655 0
-617 -656 0
-617 -657 0
-617 -658 0
-617 -659 0
-617 -660 0
-617 -661 0
-617 -662 0
-617 -663 0
-617 -664 0
-617 -665 0
-617 -666 0
-618 -619 0
-618 -620 0
-618 -621 0
-618 -622 0
-618 -623 0
-618 -624 0
-618 -625 0
-618 -626 0
-618 -627 0
-618 -628 0
-618 -629 0
-618 -630 0
-618 -631 0
-618 -632 0
-618 -633 0
-618 -634 0
-618 -635 0
-618 -636 0
-618 -637 0
-618 -638 0
-618 -639 0
-618 -640 0
-618 -641 0
-618 -642 0
-618 -643 0
-618 -644 0
-618 -645 0
-618 -646 0
-618 -647 0
-618 -648 0
-618 -649 0
-618 -650 0
-618 -651 0
-618 -652 0
-618 -653 0
-618 -654 0
-618 -655 0
-618 -656 0
-618 -657 0
-618 -658 0
-618 -659 0
-618 -660 0
-618 -661 0
-618 -662 0
-618 -663 0
-618 -664 0
-618 -665 0
-618 -666 0
-619 -620 0
-619 -621 0
-619 -622 0
-619 -623 0
-619 -624 0
-619 -625 0
-619 -626 0
-619 -627 0
-619 -628 0
-619 -629 0
-619 -630 0
-619 -631 0
-619 -632 0
-619 -633 0
-619 -634 0
-619 -635 0
-619 -636 0
-619 -637 0
-619 -638 0
-619 -639 0
-619 -640 0
-619 -641 0
-619 -642 0
-619 -643 0
-619 -644 0
-619 -645 0
-619 -646 0
-619 -647 0
-619 -648 0
-619 -649 0
-619 -650 0
-619 -651 0
-619 -652 0
-619 -653 0
-619 -654 0
-619 -655 0
-619 -656 0
-619 -657 0
-619 -658 0
-619 -659 0
-619 -660 0
-619 -661 0
-619 -662 0
-619 -663 0
-619 -664 0
-619 -665 0
-619 -666 0
-620 -621 0
-620 -622 0
-620 -623 0
-620 -624 0
-620 -625 0
-620 -626 0
-620 -627 0
-620 -628 0
-620 -629 0
-620 -630 0
-620 -631 0
-620 -632 0
-620 -633 0
-620 -634 0
-620 -635 0
-620 -636 0
-620 -637 0
-620 -638 0
-620 -639 0
-620 -640 0
-620 -641 0
-620 -642 0
-620 -643 0
-620 -644 0
-620 -645 0
-620 -646 0
-620 -647 0
-620 -648 0
-620 -649 0
-620 -650 0
-620 -651 0
-620 -652 0
-620 -653 0
-620 -654 0
-620 -655 0
-620 -656 0
-620 -657 0
-620 -658 0
-620 -659 0
-620 -660 0
-620 -661 0
-620 -662 0
-620 -663 0
-620 -664 0
-620 -665 0
-620 -666 0
-621 -622 0
-621 -623 0
-621 -624 0
-621 -625 0
-621 -626 0
-621 -627 0
-621 -628 0
-621 -629 0
-621 -630 0
-621 -631 0
-621 -632 0
-621 -633 0
-621 -634 0
-621 -635 0
-621 -636 0
-621 -637 0
-621 -638 0
-621 -639 0
-621 -640 0
-621 -641 0
-621 -642 0
-621 -643 0
-621 -644 0
-621 -645 0
-621 -646 0
-621 -647 0
-621 -648 0
-621 -649 0
-621 -650 0
-621 -651 0
-621 -652 0
-621 -653 0
-621 -654 0
-621 -655 0
-621 -656 0
-621 -657 0
-621 -658 0
-621 -659 0
-621 -660 0
-621 -661 0
-621 -662 0
-621 -663 0
-621 -664 0
-621 -665 0
-621 -666 0
-622 -623 0
-622 -624 0
-622 -625 0
-622 -626 0
-622 -627 0
-622 -628 0
-622 -629 0
-622 -630 0
-622 -631 0
-622 -632 0
-622 -633 0
-622 -634 0
-622 -635 0
-622 -636 0
-622 -637 0
-622 -638 0
-622 -639 0
-622 -640 0
-622 -641 0
-622 -642 0
-622 -643 0
-622 -644 0
-622 -645 0
-622 -646 0
-622 -647 0
-622 -648 0
-622 -649 0
-622 -650 0
-622 -651 0
-622 -652 0
-622 -653 0
-622 -654 0
-622 -655 0
-622 -656 0
-622 -657 0
-622 -658 0
-622 -659 0
-622 -660 0
-622 -661 0
-622 -662 0
-622 -663 0
-622 -664 0
-622 -665 0
-622 -666 0
-623 -624 0
-623 -625 0
-623 -626 0
-623 -627 0
-623 -628 0
-623 -629 0
-623 -630 0
-623 -631 0
-623 -632 0
-623 -633 0
-623 -634 0
-623 -635 0
-623 -636 0
-623 -637 0
-623 -638 0
-623 -639 0
-623 -640 0
-623 -641 0
-623 -642 0
-623 -643 0
-623 -644 0
-623 -645 0
-623 -646 0
-623 -647 0
-623 -648 0
-623 -649 0
-623 -650 0
-623 -651 0
-623 -652 0
-623 -653 0
-623 -654 0
-623 -655 0
-623 -656 0
-623 -657 0
-623 -658 0
-623 -659 0
-623 -660 0
-623 -661 0
-623 -662 0
-623 -663 0
-623 -664 0
-623 -665 0
-623 -666 0
-624 -625 0
-624 -626 0
-624 -627 0
-624 -628 0
-624 -629 0
-624 -630 0
-624 -631 0
-624 -632 0
-624 -633 0
-624 -634 0
-624 -635 0
-624 -636 0
-624 -637 0
-624 -638 0
-624 -639 0
-624 -640 0
-624 -641 0
-624 -642 0
-624 -643 0
-624 -644 0
-624 -645 0
-624 -646 0
-624 -647 0
-624 -648 0
-624 -649 0
-624 -650 0
-624 -651 0
-624 -652 0
-624 -653 0
-624 -654 0
-624 -655 0
-624 -656 0
-624 -657 0
-624 -658 0
-624 -659 0
-624 -660 0
-624 -661 0
-624 -662 0
-624 -663 0
-624 -664 0
-624 -665 0
-624 -666 0
-625 -626 0
-625 -627 0
-625 -628 0
-625 -629 0
-625 -630 0
-625 -631 0
-625 -632 0
-625 -633 0
-625 -634 0
-625 -635 0
-625 -636 0
-625 -637 0
-625 -638 0
-625 -639 0
-625 -640 0
-625 -641 0
-625 -642 0
-625 -643 0
-625 -644 0
-625 -645 0
-625 -646 0
-625 -647 0
-625 -648 0
-625 -649 0
-625 -650 0
-625 -651 0
-625 -652 0
-625 -653 0
-625 -654 0
-625 -655 0
-625 -656 0
-625 -657 0
-625 -658 0
-625 -659 0
-625 -660 0
-625 -661 0
-625 -662 0
-625 -663 0
-625 -664 0
-625 -665 0
-625 -666 0
-626 -627 0
-626 -628 0
-626 -629 0
-626 -630 0
-626 -631 0
-626 -632 0
-626 -633 0
-626 -634 0
-626 -635 0
-626 -636 0
-626 -637 0
-626 -638 0
-626 -639 0
-626 -640 0
-626 -641 0
-626 -642 0
-626 -643 0
-626 -644 0
-626 -645 0
-626 -646 0
-626 -647 0
-626 -648 0
-626 -649 0
-626 -650 0
-626 -651 0
-626 -652 0
-626 -653 0
-626 -654 0
-626 -655 0
-626 -656 0
-626 -657 0
-626 -658 0
-626 -659 0
-626 -660 0
-626 -661 0
-626 -662 0
-626 -663 0
-626 -664 0
-626 -665 0
-626 -666 0
-627 -628 0
-627 -629 0
-627 -630 0
-627 -631 0
-627 -632 0
-627 -633 0
-627 -634 0
-627 -635 0
-627 -636 0
-627 -637 0
-627 -638 0
-627 -639 0
-627 -640 0
-627 -641 0
-627 -642 0
-627 -643 0
-627 -644 0
-627 -645 0
-627 -646 0
-627 -647 0
-627 -648 0
-627 -649 0
-627 -650 0
-627 -651 0
-627 -652 0
-627 -653 0
-627 -654 0
-627 -655 0
-627 -656 0
-627 -657 0
-627 -658 0
-627 -659 0
-627 -660 0
-627 -661 0
-627 -662 0
-627 -663 0
-627 -664 0
-627 -665 0
-627 -666 0
-628 -629 0
-628 -630 0
-628 -631 0
-628 -632 0
-628 -633 0
-628 -634 0
-628 -635 0
-628 -636 0
-628 -637 0
-628 -638 0
-628 -639 0
-628 -640 0
-628 -641 0
-628 -642 0
-628 -643 0
-628 -644 0
-628 -645 0
-628 -646 0
-628 -647 0
-628 -648 0
-628 -649 0
-628 -650 0
-628 -651 0
-628 -652 0
-628 -653 0
-628 -654 0
-628 -655 0
-628 -656 0
-628 -657 0
-628 -658 0
-628 -659 0
-628 -660 0
-628 -661 0
-628 -662 0
-628 -663 0
-628 -664 0
-628 -665 0
-628 -666 0
-629 -630 0
-629 -631 0
-629 -632 0
-629 -633 0
-629 -634 0
-629 -635 0
-629 -636 0
-629 -637 0
-629 -638 0
-629 -639 0
-629 -640 0
-629 -641 0
-629 -642 0
-629 -643 0
-629 -644 0
-629 -645 0
-629 -646 0
-629 -647 0
-629 -648 0
-629 -649 0
-629 -650 0
-629 -651 0
-629 -652 0
-629 -653 0
-629 -654 0
-629 -655 0
-629 -656 0
-629 -657 0
-629 -658 0
-629 -659 0
-629 -660 0
-629 -661 0
-629 -662 0
-629 -663 0
-629 -664 0
-629 -665 0
-629 -666 0
-630 -631 0
-630 -632 0
-630 -633 0
-630 -634 0
-630 -635 0
-630 -636 0
-630 -637 0
-630 -638 0
-630 -639 0
-630 -640 0
-630 -641 0
-630 -642 0
-630 -643 0
-630 -644 0
-630 -645 0
-630 -646 0
-630 -647 0
-630 -648 0
-630 -649 0
-630 -650 0
-630 -651 0
-630 -652 0
-630 -653 0
-630 -654 0
-630 -655 0
-630 -656 0
-630 -657 0
-630 -658 0
-630 -659 0
-630 -660 0
-630 -661 0
-630 -662 0
-630 -663 0
-630 -664 0
-630 -665 0
-630 -666 0
-631 -632 0
-631 -633 0
-631 -634 0
-631 -635 0
-631 -636 0
-631 -637 0
-631 -638 0
-631 -639 0
-631 -640 0
-631 -641 0
-631 -642 0
-631 -643 0
-631 -644 0
-631 -645 0
-631 -646 0
-631 -647 0
-631 -648 0
-631 -649 0
-631 -650 0
-631 -651 0
-631 -652 0
-631 -653 0
-631 -654 0
-631 -655 0
-631 -656 0
-631 -657 0
-631 -658 0
-631 -659 0
-631 -660 0
-631 -661 0
-631 -662 0
-631 -663 0
-631 -664 0
-631 -665 0
-631 -666 0
-632 -633 0
-632 -634 0
-632 -635 0
-632 -636 0
-632 -637 0
-632 -638 0
-632 -639 0
-632 -640 0
-632 -641 0
-632 -642 0
-632 -643 0
-632 -644 0
-632 -645 0
-632 -646 0
-632 -647 0
-632 -648 0
-632 -649 0
-632 -650 0
-632 -651 0
-632 -652 0
-632 -653 0
-632 -654 0
-632 -655 0
-632 -656 0
-632 -657 0
-632 -658 0
-632 -659 0
-632 -660 0
-632 -661 0
-632 -662 0
-632 -663 0
-632 -664 0
-632 -665 0
-632 -666 0
-633 -634 0
-633 -635 0
-633 -636 0
-633 -637 0
-633 -638 0
-633 -639 0
-633 -640 0
-633 -641 0
-633 -642 0
-633 -643 0
-633 -644 0
-633 -645 0
-633 -646 0
-633 -647 0
-633 -648 0
-633 -649 0
-633 -650 0
-633 -651 0
-633 -652 0
-633 -653 0
-633 -654 0
-633 -655 0
-633 -656 0
-633 -657 0
-633 -658 0
-633 -659 0
-633 -660 0
-633 -661 0
-633 -662 0
-633 -663 0
-633 -664 0
-633 -665 0
-633 -666 0
-634 -635 0
-634 -636 0
-634 -637 0
-634 -638 0
-634 -639 0
-634 -640 0
-634 -641 0
-634 -642 0
-634 -643 0
-634 -644 0
-634 -645 0
-634 -646 0
-634 -647 0
-634 -648 0
-634 -649 0
-634 -650 0
-634 -651 0
-634 -652 0
-634 -653 0
-634 -654 0
-634 -655 0
-634 -656 0
-634 -657 0
-634 -658 0
-634 -659 0
-634 -660 0
-634 -661 0
-634 -662 0
-634 -663 0
-634 -664 0
-634 -665 0
-634 -666 0
-635 -636 0
-635 -637 0
-635 -638 0
-635 -639 0
-635 -640 0
-635 -641 0
-635 -642 0
-635 -643 0
-635 -644 0
-635 -645 0
-635 -646 0
-635 -647 0
-635 -648 0
-635 -649 0
-635 -650 0
-635 -651 0
-635 -652 0
-635 -653 0
-635 -654 0
-635 -655 0
-635 -656 0
-635 -657 0
-635 -658 0
-635 -659 0
-635 -660 0
-635 -661 0
-635 -662 0
-635 -663 0
-635 -664 0
-635 -665 0
-635 -666 0
-636 -637 0
-636 -638 0
-636 -639 0
-636 -640 0
-636 -641 0
-636 -642 0
-636 -643 0
-636 -644 0
-636 -645 0
-636 -646 0
-636 -647 0
-636 -648 0
-636 -649 0
-636 -650 0
-636 -651 0
-636 -652 0
-636 -653 0
-636 -654 0
-636 -655 0
-636 -656 0
-636 -657 0
-636 -658 0
-636 -659 0
-636 -660 0
-636 -661 0
-636 -662 0
-636 -663 0
-636 -664 0
-636 -665 0
-636 -666 0
-637 -638 0
-637 -639 0
-637 -640 0
-637 -641 0
-637 -642 0
-637 -643 0
-637 -644 0
-637 -645 0
-637 -646 0
-637 -647 0
-637 -648 0
-637 -649 0
-637 -650 0
-637 -651 0
-637 -652 0
-637 -653 0
-637 -654 0
-637 -655 0
-637 -656 0
-637 -657 0
-637 -658 0
-637 -659 0
-637 -660 0
-637 -661 0
-637 -662 0
-637 -663 0
-637 -664 0
-637 -665 0
-637 -666 0
-638 -639 0
-638 -640 0
-638 -641 0
-638 -642 0
-638 -643 0
-638 -644 0
-638 -645 0
-638 -646 0
-638 -647 0
-638 -648 0
-638 -649 0
-638 -650 0
-638 -651 0
-638 -652 0
-638 -653 0
-638 -654 0
-638 -655 0
-638 -656 0
-638 -657 0
-638 -658 0
-638 -659 0
-638 -660 0
-638 -661 0
-638 -662 0
-638 -663 0
-638 -664 0
-638 -665 0
-638 -666 0
-639 -640 0
-639 -641 0
-639 -642 0
-639 -643 0
-639 -644 0
-639 -645 0
-639 -646 0
-639 -647 0
-639 -648 0
-639 -649 0
-639 -650 0
-639 -651 0
-639 -652 0
-639 -653 0
-639 -654 0
-639 -655 0
-639 -656 0
-639 -657 0
-639 -658 0
-639 -659 0
-639 -660 0
-639 -661 0
-639 -662 0
-639 -663 0
-639 -664 0
-639 -665 0
-639 -666 0
-640 -641 0
-640 -642 0
-640 -643 0
-640 -644 0
-640 -645 0
-640 -646 0
-640 -647 0
-640 -648 0
-640 -649 0
-640 -650 0
-640 -651 0
-640 -652 0
-640 -653 0
-640 -654 0
-640 -655 0
-640 -656 0
-640 -657 0
-640 -658 0
-640 -659 0
-640 -660 0
-640 -661 0
-640 -662 0
-640 -663 0
-640 -664 0
-640 -665 0
-640 -666 0
-641 -642 0
-641 -643 0
-641 -644 0
-641 -645 0
-641 -646 0
-641 -647 0
-641 -648 0
-641 -649 0
-641 -650 0
-641 -651 0
-641 -652 0
-641 -653 0
-641 -654 0
-641 -655 0
-641 -656 0
-641 -657 0
-641 -658 0
-641 -659 0
-641 -660 0
-641 -661 0
-641 -662 0
-641 -663 0
-641 -664 0
-641 -665 0
-641 -666 0
-642 -643 0
-642 -644 0
-642 -645 0
-642 -646 0
-642 -647 0
-642 -648 0
-642 -649 0
-642 -650 0
-642 -651 0
-642 -652 0
-642 -653 0
-642 -654 0
-642 -655 0
-642 -656 0
-642 -657 0
-642 -658 0
-642 -659 0
-642 -660 0
-642 -661 0
-642 -662 0
-642 -663 0
-642 -664 0
-642 -665 0
-642 -666 0
-643 -644 0
-643 -645 0
-643 -646 0
-643 -647 0
-643 -648 0
-643 -649 0
-643 -650 0
-643 -651 0
-643 -652 0
-643 -653 0
-643 -654 0
-643 -655 0
-643 -656 0
-643 -657 0
-643 -658 0
-643 -659 0
-643 -660 0
-643 -661 0
-643 -662 0
-643 -663 0
-643 -664 0
-643 -665 0
-643 -666 0
-644 -645 0
-644 -646 0
-644 -647 0
-644 -648 0
-644 -649 0
-644 -650 0
-644 -651 0
-644 -652 0
-644 -653 0
-644 -654 0
-644 -655 0
-644 -656 0
-644 -657 0
-644 -658 0
-644 -659 0
-644 -660 0
-644 -661 0
-644 -662 0
-644 -663 0
-644 -664 0
-644 -665 0
-644 -666 0
-645 -646 0
-645 -647 0
-645 -648 0
-645 -649 0
-645 -650 0
-645 -651 0
-645 -652 0
-645 -653 0
-645 -654 0
-645 -655 0
-645 -656 0
-645 -657 0
-645 -658 0
-645 -659 0
-645 -660 0
-645 -661 0
-645 -662 0
-645 -663 0
-645 -664 0
-645 -665 0
-645 -666 0
-646 -647 0
-646 -648 0
-646 -649 0
-646 -650 0
-646 -651 0
-646 -652 0
-646 -653 0
-646 -654 0
-646 -655 0
-646 -656 0
-646 -657 0
-646 -658 0
-646 -659 0
-646 -660 0
-646 -661 0
-646 -662 0
-646 -663 0
-646 -664 0
-646 -665 0
-646 -666 0
-647 -648 0
-647 -649 0
-647 -650 0
-647 -651 0
-647 -652 0
-647 -653 0
-647 -654 0
-647 -655 0
-647 -656 0
-647 -657 0
-647 -658 0
-647 -659 0
-647 -660 0
-647 -661 0
-647 -662 0
-647 -663 0
-647 -664 0
-647 -665 0
-647 -666 0
-648 -649 0
-648 -650 0
-648 -651 0
-648 -652 0
-648 -653 0
-648 -654 0
-648 -655 0
-648 -656 0
-648 -657 0
-648 -658 0
-648 -659 0
-648 -660 0
-648 -661 0
-648 -662 0
-648 -663 0
-648 -664 0
-648 -665 0
-648 -666 0
-649 -650 0
-649 -651 0
-649 -652 0
-649 -653 0
-649 -654 0
-649 -655 0
-649 -656 0
-649 -657 0
-649 -658 0
-649 -659 0
-649 -660 0
-649 -661 0
-649 -662 0
-649 -663 0
-649 -664 0
-649 -665 0
-649 -666 0
-650 -651 0
-650 -652 0
-650 -653 0
-650 -654 0
-650 -655 0
-650 -656 0
-650 -657 0
-650 -658 0
-650 -659 0
-650 -660 0
-650 -661 0
-650 -662 0
-650 -663 0
-650 -664 0
-650 -665 0
-650 -666 0
-651 -652 0
-651 -653 0
-651 -654 0
-651 -655 0
-651 -656 0
-651 -657 0
-651 -658 0
-651 -659 0
-651 -660 0
-651 -661 0
-651 -662 0
-651 -663 0
-651 -664 0
-651 -665 0
-651 -666 0
-652 -653 0
-652 -654 0
-652 -655 0
-652 -656 0
-652 -657 0
-652 -658 0
-652 -659 0
-652 -660 0
-652 -661 0
-652 -662 0
-652 -663 0
-652 -664 0
-652 -665 0
-652 -666 0
-653 -654 0
-653 -655 0
-653 -656 0
-653 -657 0
-653 -658 0
-653 -659 0
-653 -660 0
-653 -661 0
-653 -662 0
-653 -663 0
-653 -664 0
-653 -665 0
-653 -666 0
-654 -655 0
-654 -656 0
-654 -657 0
-654 -658 0
-654 -659 0
-654 -660 0
-654 -661 0
-654 -662 0
-654 -663 0
-654 -664 0
-654 -665 0
-654 -666 0
-655 -656 0
-655 -657 0
-655 -658 0
-655 -659 0
-655 -660 0
-655 -661 0
-655 -662 0
-655 -663 0
-655 -664 0
-655 -665 0
-655 -666 0
-656 -657 0
-656 -658 0
-656 -659 0
-656 -660 0
-656 -661 0
-656 -662 0
-656 -663 0
-656 -664 0
-656 -665 0
-656 -666 0
-657 -658 0
-657 -659 0
-657 -660 0
-657 -661 0
-657 -662 0
-657 -663 0
-657 -664 0
-657 -665 0
-657 -666 0
-658 -659 0
-658 -660 0
-658 -661 0
-658 -662 0
-658 -663 0
-658 -664 0
-658 -665 0
-658 -666 0
-659 -660 0
-659 -661 0
-659 -662 0
-659 -663 0
-659 -664 0
-659 -665 0
-659 -666 0
-660 -661 0
-660 -662 0
-660 -663 0
-660 -664 0
-660 -665 0
-660 -666 0
-661 -662 0
-661 -663 0
-661 -664 0
-661 -665 0
-661 -666 0
-662 -663 0
-662 -664 0
-662 -665 0
-662 -666 0
-663 -664 0
-663 -665 0
-663 -666 0
-664 -665 0
-664 -666 0
-665 -666 0
-1387 5 0
-1387 9 0
-5 -9 1387 0
-1387 0
-1388 46 0
-1388 50 0
-46 -50 1388 0
-1389 27 0
-1389 29 0
-27 -29 1389 0
-1388 1389 0
-1390 87 0
-1390 91 0
-87 -91 1390 0
-1391 68 0
-1391 70 0
-68 -70 1391 0
-1390 1389 1391 0
-1392 128 0
-1392 132 0
-128 -132 1392 0
-1393 109 0
-1393 111 0
-109 -111 1393 0
-1392 1389 1391 1393 0
-1394 169 0
-1394 173 0
-169 -173 1394 0
-1395 150 0
-1395 152 0
-150 -152 1395 0
-1394 1389 1391 1393 1395 0
-1396 210 0
-1396 214 0
-210 -214 1396 0
-1397 191 0
-1397 193 0
-191 -193 1397 0
-1396 1389 1391 1393 1395 1397 0
-1398 17 0
-1398 20 0
-17 -20 1398 0
-1398 0
-1399 58 0
-1399 61 0
-58 -61 1399 0
-1399 1389 0
-1400 99 0
-1400 102 0
-99 -102 1400 0
-1400 1389 1391 0
-1401 140 0
-1401 143 0
-140 -143 1401 0
-1401 1389 1391 1393 0
-1402 181 0
-1402 184 0
-181 -184 1402 0
-1402 1389 1391 1393 1395 0
-1403 222 0
-1403 225 0
-222 -225 1403 0
-1403 1389 1391 1393 1395 1397 0
