p cnf 1638 46534
-1 -7 793 0
-793 7 0
-793 1 0
-793 792 0
-12 -18 794 0
-794 18 0
-794 12 0
-794 792 0
-23 -28 795 0
-795 28 0
-795 23 0
-795 792 0
-33 -37 796 0
-796 37 0
-796 33 0
-796 792 0
-792 793 794 795 796 0
-1 -8 798 0
-798 8 0
-798 1 0
-798 797 0
-12 -19 799 0
-799 19 0
-799 12 0
-799 797 0
-23 -29 800 0
-800 29 0
-800 23 0
-800 797 0
-33 -38 801 0
-801 38 0
-801 33 0
-801 797 0
-797 798 799 800 801 0
-1 -9 803 0
-803 9 0
-803 1 0
-803 802 0
-12 -20 804 0
-804 20 0
-804 12 0
-804 802 0
-23 -30 805 0
-805 30 0
-805 23 0
-805 802 0
-33 -39 806 0
-806 39 0
-806 33 0
-806 802 0
-802 803 804 805 806 0
-1 -10 808 0
-808 10 0
-808 1 0
-808 807 0
-12 -21 809 0
-809 21 0
-809 12 0
-809 807 0
-23 -31 810 0
-810 31 0
-810 23 0
-810 807 0
-33 -40 811 0
-811 40 0
-811 33 0
-811 807 0
-807 808 809 810 811 0
-2 -7 813 0
-813 7 0
-813 2 0
-813 812 0
-13 -18 814 0
-814 18 0
-814 13 0
-814 812 0
-23 -28 815 0
-24 -28 815 0
-815 28 0
-815 23 24 0
-815 812 0
-33 -37 816 0
-34 -37 816 0
-816 37 0
-816 33 34 0
-816 812 0
-812 813 814 815 816 0
-2 -8 818 0
-818 8 0
-818 2 0
-818 817 0
-13 -19 819 0
-819 19 0
-819 13 0
-819 817 0
-23 -29 820 0
-24 -29 820 0
-820 29 0
-820 23 24 0
-820 817 0
-33 -38 821 0
-34 -38 821 0
-821 38 0
-821 33 34 0
-821 817 0
-817 818 819 820 821 0
-2 -9 823 0
-823 9 0
-823 2 0
-823 822 0
-13 -20 824 0
-824 20 0
-824 13 0
-824 822 0
-23 -30 825 0
-24 -30 825 0
-825 30 0
-825 23 24 0
-825 822 0
-33 -39 826 0
-34 -39 826 0
-826 39 0
-826 33 34 0
-826 822 0
-822 823 824 825 826 0
-2 -10 828 0
-828 10 0
-828 2 0
-828 827 0
-13 -21 829 0
-829 21 0
-829 13 0
-829 827 0
-23 -31 830 0
-24 -31 830 0
-830 31 0
-830 23 24 0
-830 827 0
-33 -40 831 0
-34 -40 831 0
-831 40 0
-831 33 34 0
-831 827 0
-827 828 829 830 831 0
-3 -7 833 0
-833 7 0
-833 3 0
-833 832 0
-14 -18 834 0
-834 18 0
-834 14 0
-834 832 0
-24 -28 835 0
-25 -28 835 0
-835 28 0
-835 24 25 0
-835 832 0
-33 -37 836 0
-34 -37 836 0
-35 -37 836 0
-836 37 0
-836 33 34 35 0
-836 832 0
-832 833 834 835 836 0
-3 -8 838 0
-838 8 0
-838 3 0
-838 837 0
-14 -19 839 0
-839 19 0
-839 14 0
-839 837 0
-24 -29 840 0
-25 -29 840 0
-840 29 0
-840 24 25 0
-840 837 0
-33 -38 841 0
-34 -38 841 0
-35 -38 841 0
-841 38 0
-841 33 34 35 0
-841 837 0
-837 838 839 840 841 0
-3 -9 843 0
-843 9 0
-843 3 0
-843 842 0
-14 -20 844 0
-844 20 0
-844 14 0
-844 842 0
-24 -30 845 0
-25 -30 845 0
-845 30 0
-845 24 25 0
-845 842 0
-33 -39 846 0
-34 -39 846 0
-35 -39 846 0
-846 39 0
-846 33 34 35 0
-846 842 0
-842 843 844 845 846 0
-3 -10 848 0
-848 10 0
-848 3 0
-848 847 0
-14 -21 849 0
-849 21 0
-849 14 0
-849 847 0
-24 -31 850 0
-25 -31 850 0
-850 31 0
-850 24 25 0
-850 847 0
-33 -40 851 0
-34 -40 851 0
-35 -40 851 0
-851 40 0
-851 33 34 35 0
-851 847 0
-847 848 849 850 851 0
-4 -7 853 0
-853 7 0
-853 4 0
-853 852 0
-15 -18 854 0
-854 18 0
-854 15 0
-854 852 0
-25 -28 855 0
-26 -28 855 0
-855 28 0
-855 25 26 0
-855 852 0
-34 -37 856 0
-35 -37 856 0
-36 -37 856 0
-856 37 0
-856 34 35 36 0
-856 852 0
-852 853 854 855 856 0
-4 -8 858 0
-858 8 0
-858 4 0
-858 857 0
-15 -19 859 0
-859 19 0
-859 15 0
-859 857 0
-25 -29 860 0
-26 -29 860 0
-860 29 0
-860 25 26 0
-860 857 0
-34 -38 861 0
-35 -38 861 0
-36 -38 861 0
-861 38 0
-861 34 35 36 0
-861 857 0
-857 858 859 860 861 0
-4 -9 863 0
-863 9 0
-863 4 0
-863 862 0
-15 -20 864 0
-864 20 0
-864 15 0
-864 862 0
-25 -30 865 0
-26 -30 865 0
-865 30 0
-865 25 26 0
-865 862 0
-34 -39 866 0
-35 -39 866 0
-36 -39 866 0
-866 39 0
-866 34 35 36 0
-866 862 0
-862 863 864 865 866 0
-4 -10 868 0
-868 10 0
-868 4 0
-868 867 0
-15 -21 869 0
-869 21 0
-869 15 0
-869 867 0
-25 -31 870 0
-26 -31 870 0
-870 31 0
-870 25 26 0
-870 867 0
-34 -40 871 0
-35 -40 871 0
-36 -40 871 0
-871 40 0
-871 34 35 36 0
-871 867 0
-867 868 869 870 871 0
-5 -7 873 0
-873 7 0
-873 5 0
-873 872 0
-16 -18 874 0
-874 18 0
-874 16 0
-874 872 0
-26 -28 875 0
-27 -28 875 0
-875 28 0
-875 26 27 0
-875 872 0
-35 -37 876 0
-36 -37 876 0
-876 37 0
-876 35 36 0
-876 872 0
-872 873 874 875 876 0
-5 -8 878 0
-878 8 0
-878 5 0
-878 877 0
-16 -19 879 0
-879 19 0
-879 16 0
-879 877 0
-26 -29 880 0
-27 -29 880 0
-880 29 0
-880 26 27 0
-880 877 0
-35 -38 881 0
-36 -38 881 0
-881 38 0
-881 35 36 0
-881 877 0
-877 878 879 880 881 0
-5 -9 883 0
-883 9 0
-883 5 0
-883 882 0
-16 -20 884 0
-884 20 0
-884 16 0
-884 882 0
-26 -30 885 0
-27 -30 885 0
-885 30 0
-885 26 27 0
-885 882 0
-35 -39 886 0
-36 -39 886 0
-886 39 0
-886 35 36 0
-886 882 0
-882 883 884 885 886 0
-5 -10 888 0
-888 10 0
-888 5 0
-888 887 0
-16 -21 889 0
-889 21 0
-889 16 0
-889 887 0
-26 -31 890 0
-27 -31 890 0
-890 31 0
-890 26 27 0
-890 887 0
-35 -40 891 0
-36 -40 891 0
-891 40 0
-891 35 36 0
-891 887 0
-887 888 889 890 891 0
-6 -7 893 0
-893 7 0
-893 6 0
-893 892 0
-17 -18 894 0
-894 18 0
-894 17 0
-894 892 0
-27 -28 895 0
-895 28 0
-895 27 0
-895 892 0
-36 -37 896 0
-896 37 0
-896 36 0
-896 892 0
-892 893 894 895 896 0
-6 -8 898 0
-898 8 0
-898 6 0
-898 897 0
-17 -19 899 0
-899 19 0
-899 17 0
-899 897 0
-27 -29 900 0
-900 29 0
-900 27 0
-900 897 0
-36 -38 901 0
-901 38 0
-901 36 0
-901 897 0
-897 898 899 900 901 0
-6 -9 903 0
-903 9 0
-903 6 0
-903 902 0
-17 -20 904 0
-904 20 0
-904 17 0
-904 902 0
-27 -30 905 0
-905 30 0
-905 27 0
-905 902 0
-36 -39 906 0
-906 39 0
-906 36 0
-906 902 0
-902 903 904 905 906 0
-6 -10 908 0
-908 10 0
-908 6 0
-908 907 0
-17 -21 909 0
-909 21 0
-909 17 0
-909 907 0
-27 -31 910 0
-910 31 0
-910 27 0
-910 907 0
-36 -40 911 0
-911 40 0
-911 36 0
-911 907 0
-907 908 909 910 911 0
-42 -48 913 0
-913 48 0
-913 42 0
-913 912 0
-53 -59 914 0
-914 59 0
-914 53 0
-914 912 0
-64 -69 915 0
-915 69 0
-915 64 0
-915 912 0
-74 -78 916 0
-916 78 0
-916 74 0
-916 912 0
-912 913 914 915 916 0
-42 -49 918 0
-918 49 0
-918 42 0
-918 917 0
-53 -60 919 0
-919 60 0
-919 53 0
-919 917 0
-64 -70 920 0
-920 70 0
-920 64 0
-920 917 0
-74 -79 921 0
-921 79 0
-921 74 0
-921 917 0
-917 918 919 920 921 0
-42 -50 923 0
-923 50 0
-923 42 0
-923 922 0
-53 -61 924 0
-924 61 0
-924 53 0
-924 922 0
-64 -71 925 0
-925 71 0
-925 64 0
-925 922 0
-74 -80 926 0
-926 80 0
-926 74 0
-926 922 0
-922 923 924 925 926 0
-42 -51 928 0
-928 51 0
-928 42 0
-928 927 0
-53 -62 929 0
-929 62 0
-929 53 0
-929 927 0
-64 -72 930 0
-930 72 0
-930 64 0
-930 927 0
-74 -81 931 0
-931 81 0
-931 74 0
-931 927 0
-927 928 929 930 931 0
-43 -48 933 0
-933 48 0
-933 43 0
-933 932 0
-54 -59 934 0
-934 59 0
-934 54 0
-934 932 0
-64 -69 935 0
-65 -69 935 0
-935 69 0
-935 64 65 0
-935 932 0
-74 -78 936 0
-75 -78 936 0
-936 78 0
-936 74 75 0
-936 932 0
-932 933 934 935 936 0
-43 -49 938 0
-938 49 0
-938 43 0
-938 937 0
-54 -60 939 0
-939 60 0
-939 54 0
-939 937 0
-64 -70 940 0
-65 -70 940 0
-940 70 0
-940 64 65 0
-940 937 0
-74 -79 941 0
-75 -79 941 0
-941 79 0
-941 74 75 0
-941 937 0
-937 938 939 940 941 0
-43 -50 943 0
-943 50 0
-943 43 0
-943 942 0
-54 -61 944 0
-944 61 0
-944 54 0
-944 942 0
-64 -71 945 0
-65 -71 945 0
-945 71 0
-945 64 65 0
-945 942 0
-74 -80 946 0
-75 -80 946 0
-946 80 0
-946 74 75 0
-946 942 0
-942 943 944 945 946 0
-43 -51 948 0
-948 51 0
-948 43 0
-948 947 0
-54 -62 949 0
-949 62 0
-949 54 0
-949 947 0
-64 -72 950 0
-65 -72 950 0
-950 72 0
-950 64 65 0
-950 947 0
-74 -81 951 0
-75 -81 951 0
-951 81 0
-951 74 75 0
-951 947 0
-947 948 949 950 951 0
-44 -48 953 0
-953 48 0
-953 44 0
-953 952 0
-55 -59 954 0
-954 59 0
-954 55 0
-954 952 0
-65 -69 955 0
-66 -69 955 0
-955 69 0
-955 65 66 0
-955 952 0
-74 -78 956 0
-75 -78 956 0
-76 -78 956 0
-956 78 0
-956 74 75 76 0
-956 952 0
-952 953 954 955 956 0
-44 -49 958 0
-958 49 0
-958 44 0
-958 957 0
-55 -60 959 0
-959 60 0
-959 55 0
-959 957 0
-65 -70 960 0
-66 -70 960 0
-960 70 0
-960 65 66 0
-960 957 0
-74 -79 961 0
-75 -79 961 0
-76 -79 961 0
-961 79 0
-961 74 75 76 0
-961 957 0
-957 958 959 960 961 0
-44 -50 963 0
-963 50 0
-963 44 0
-963 962 0
-55 -61 964 0
-964 61 0
-964 55 0
-964 962 0
-65 -71 965 0
-66 -71 965 0
-965 71 0
-965 65 66 0
-965 962 0
-74 -80 966 0
-75 -80 966 0
-76 -80 966 0
-966 80 0
-966 74 75 76 0
-966 962 0
-962 963 964 965 966 0
-44 -51 968 0
-968 51 0
-968 44 0
-968 967 0
-55 -62 969 0
-969 62 0
-969 55 0
-969 967 0
-65 -72 970 0
-66 -72 970 0
-970 72 0
-970 65 66 0
-970 967 0
-74 -81 971 0
-75 -81 971 0
-76 -81 971 0
-971 81 0
-971 74 75 76 0
-971 967 0
-967 968 969 970 971 0
-45 -48 973 0
-973 48 0
-973 45 0
-973 972 0
-56 -59 974 0
-974 59 0
-974 56 0
-974 972 0
-66 -69 975 0
-67 -69 975 0
-975 69 0
-975 66 67 0
-975 972 0
-75 -78 976 0
-76 -78 976 0
-77 -78 976 0
-976 78 0
-976 75 76 77 0
-976 972 0
-972 973 974 975 976 0
-45 -49 978 0
-978 49 0
-978 45 0
-978 977 0
-56 -60 979 0
-979 60 0
-979 56 0
-979 977 0
-66 -70 980 0
-67 -70 980 0
-980 70 0
-980 66 67 0
-980 977 0
-75 -79 981 0
-76 -79 981 0
-77 -79 981 0
-981 79 0
-981 75 76 77 0
-981 977 0
-977 978 979 980 981 0
-45 -50 983 0
-983 50 0
-983 45 0
-983 982 0
-56 -61 984 0
-984 61 0
-984 56 0
-984 982 0
-66 -71 985 0
-67 -71 985 0
-985 71 0
-985 66 67 0
-985 982 0
-75 -80 986 0
-76 -80 986 0
-77 -80 986 0
-986 80 0
-986 75 76 77 0
-986 982 0
-982 983 984 985 986 0
-45 -51 988 0
-988 51 0
-988 45 0
-988 987 0
-56 -62 989 0
-989 62 0
-989 56 0
-989 987 0
-66 -72 990 0
-67 -72 990 0
-990 72 0
-990 66 67 0
-990 987 0
-75 -81 991 0
-76 -81 991 0
-77 -81 991 0
-991 81 0
-991 75 76 77 0
-991 987 0
-987 988 989 990 991 0
-46 -48 993 0
-993 48 0
-993 46 0
-993 992 0
-57 -59 994 0
-994 59 0
-994 57 0
-994 992 0
-67 -69 995 0
-68 -69 995 0
-995 69 0
-995 67 68 0
-995 992 0
-76 -78 996 0
-77 -78 996 0
-996 78 0
-996 76 77 0
-996 992 0
-992 993 994 995 996 0
-46 -49 998 0
-998 49 0
-998 46 0
-998 997 0
-57 -60 999 0
-999 60 0
-999 57 0
-999 997 0
-67 -70 1000 0
-68 -70 1000 0
-1000 70 0
-1000 67 68 0
-1000 997 0
-76 -79 1001 0
-77 -79 1001 0
-1001 79 0
-1001 76 77 0
-1001 997 0
-997 998 999 1000 1001 0
-46 -50 1003 0
-1003 50 0
-1003 46 0
-1003 1002 0
-57 -61 1004 0
-1004 61 0
-1004 57 0
-1004 1002 0
-67 -71 1005 0
-68 -71 1005 0
-1005 71 0
-1005 67 68 0
-1005 1002 0
-76 -80 1006 0
-77 -80 1006 0
-1006 80 0
-1006 76 77 0
-1006 1002 0
-1002 1003 1004 1005 1006 0
-46 -51 1008 0
-1008 51 0
-1008 46 0
-1008 1007 0
-57 -62 1009 0
-1009 62 0
-1009 57 0
-1009 1007 0
-67 -72 1010 0
-68 -72 1010 0
-1010 72 0
-1010 67 68 0
-1010 1007 0
-76 -81 1011 0
-77 -81 1011 0
-1011 81 0
-1011 76 77 0
-1011 1007 0
-1007 1008 1009 1010 1011 0
-47 -48 1013 0
-1013 48 0
-1013 47 0
-1013 1012 0
-58 -59 1014 0
-1014 59 0
-1014 58 0
-1014 1012 0
-68 -69 1015 0
-1015 69 0
-1015 68 0
-1015 1012 0
-77 -78 1016 0
-1016 78 0
-1016 77 0
-1016 1012 0
-1012 1013 1014 1015 1016 0
-47 -49 1018 0
-1018 49 0
-1018 47 0
-1018 1017 0
-58 -60 1019 0
-1019 60 0
-1019 58 0
-1019 1017 0
-68 -70 1020 0
-1020 70 0
-1020 68 0
-1020 1017 0
-77 -79 1021 0
-1021 79 0
-1021 77 0
-1021 1017 0
-1017 1018 1019 1020 1021 0
-47 -50 1023 0
-1023 50 0
-1023 47 0
-1023 1022 0
-58 -61 1024 0
-1024 61 0
-1024 58 0
-1024 1022 0
-68 -71 1025 0
-1025 71 0
-1025 68 0
-1025 1022 0
-77 -80 1026 0
-1026 80 0
-1026 77 0
-1026 1022 0
-1022 1023 1024 1025 1026 0
-47 -51 1028 0
-1028 51 0
-1028 47 0
-1028 1027 0
-58 -62 1029 0
-1029 62 0
-1029 58 0
-1029 1027 0
-68 -72 1030 0
-1030 72 0
-1030 68 0
-1030 1027 0
-77 -81 1031 0
-1031 81 0
-1031 77 0
-1031 1027 0
-1027 1028 1029 1030 1031 0
-83 -89 1033 0
-1033 89 0
-1033 83 0
-1033 1032 0
-94 -100 1034 0
-1034 100 0
-1034 94 0
-1034 1032 0
-105 -110 1035 0
-1035 110 0
-1035 105 0
-1035 1032 0
-115 -119 1036 0
-1036 119 0
-1036 115 0
-1036 1032 0
-1032 1033 1034 1035 1036 0
-83 -90 1038 0
-1038 90 0
-1038 83 0
-1038 1037 0
-94 -101 1039 0
-1039 101 0
-1039 94 0
-1039 1037 0
-105 -111 1040 0
-1040 111 0
-1040 105 0
-1040 1037 0
-115 -120 1041 0
-1041 120 0
-1041 115 0
-1041 1037 0
-1037 1038 1039 1040 1041 0
-83 -91 1043 0
-1043 91 0
-1043 83 0
-1043 1042 0
-94 -102 1044 0
-1044 102 0
-1044 94 0
-1044 1042 0
-105 -112 1045 0
-1045 112 0
-1045 105 0
-1045 1042 0
-115 -121 1046 0
-1046 121 0
-1046 115 0
-1046 1042 0
-1042 1043 1044 1045 1046 0
-83 -92 1048 0
-1048 92 0
-1048 83 0
-1048 1047 0
-94 -103 1049 0
-1049 103 0
-1049 94 0
-1049 1047 0
-105 -113 1050 0
-1050 113 0
-1050 105 0
-1050 1047 0
-115 -122 1051 0
-1051 122 0
-1051 115 0
-1051 1047 0
-1047 1048 1049 1050 1051 0
-84 -89 1053 0
-1053 89 0
-1053 84 0
-1053 1052 0
-95 -100 1054 0
-1054 100 0
-1054 95 0
-1054 1052 0
-105 -110 1055 0
-106 -110 1055 0
-1055 110 0
-1055 105 106 0
-1055 1052 0
-115 -119 1056 0
-116 -119 1056 0
-1056 119 0
-1056 115 116 0
-1056 1052 0
-1052 1053 1054 1055 1056 0
-84 -90 1058 0
-1058 90 0
-1058 84 0
-1058 1057 0
-95 -101 1059 0
-1059 101 0
-1059 95 0
-1059 1057 0
-105 -111 1060 0
-106 -111 1060 0
-1060 111 0
-1060 105 106 0
-1060 1057 0
-115 -120 1061 0
-116 -120 1061 0
-1061 120 0
-1061 115 116 0
-1061 1057 0
-1057 1058 1059 1060 1061 0
-84 -91 1063 0
-1063 91 0
-1063 84 0
-1063 1062 0
-95 -102 1064 0
-1064 102 0
-1064 95 0
-1064 1062 0
-105 -112 1065 0
-106 -112 1065 0
-1065 112 0
-1065 105 106 0
-1065 1062 0
-115 -121 1066 0
-116 -121 1066 0
-1066 121 0
-1066 115 116 0
-1066 1062 0
-1062 1063 1064 1065 1066 0
-84 -92 1068 0
-1068 92 0
-1068 84 0
-1068 1067 0
-95 -103 1069 0
-1069 103 0
-1069 95 0
-1069 1067 0
-105 -113 1070 0
-106 -113 1070 0
-1070 113 0
-1070 105 106 0
-1070 1067 0
-115 -122 1071 0
-116 -122 1071 0
-1071 122 0
-1071 115 116 0
-1071 1067 0
-1067 1068 1069 1070 1071 0
-85 -89 1073 0
-1073 89 0
-1073 85 0
-1073 1072 0
-96 -100 1074 0
-1074 100 0
-1074 96 0
-1074 1072 0
-106 -110 1075 0
-107 -110 1075 0
-1075 110 0
-1075 106 107 0
-1075 1072 0
-115 -119 1076 0
-116 -119 1076 0
-117 -119 1076 0
-1076 119 0
-1076 115 116 117 0
-1076 1072 0
-1072 1073 1074 1075 1076 0
-85 -90 1078 0
-1078 90 0
-1078 85 0
-1078 1077 0
-96 -101 1079 0
-1079 101 0
-1079 96 0
-1079 1077 0
-106 -111 1080 0
-107 -111 1080 0
-1080 111 0
-1080 106 107 0
-1080 1077 0
-115 -120 1081 0
-116 -120 1081 0
-117 -120 1081 0
-1081 120 0
-1081 115 116 117 0
-1081 1077 0
-1077 1078 1079 1080 1081 0
-85 -91 1083 0
-1083 91 0
-1083 85 0
-1083 1082 0
-96 -102 1084 0
-1084 102 0
-1084 96 0
-1084 1082 0
-106 -112 1085 0
-107 -112 1085 0
-1085 112 0
-1085 106 107 0
-1085 1082 0
-115 -121 1086 0
-116 -121 1086 0
-117 -121 1086 0
-1086 121 0
-1086 115 116 117 0
-1086 1082 0
-1082 1083 1084 1085 1086 0
-85 -92 1088 0
-1088 92 0
-1088 85 0
-1088 1087 0
-96 -103 1089 0
-1089 103 0
-1089 96 0
-1089 1087 0
-106 -113 1090 0
-107 -113 1090 0
-1090 113 0
-1090 106 107 0
-1090 1087 0
-115 -122 1091 0
-116 -122 1091 0
-117 -122 1091 0
-1091 122 0
-1091 115 116 117 0
-1091 1087 0
-1087 1088 1089 1090 1091 0
-86 -89 1093 0
-1093 89 0
-1093 86 0
-1093 1092 0
-97 -100 1094 0
-1094 100 0
-1094 97 0
-1094 1092 0
-107 -110 1095 0
-108 -110 1095 0
-1095 110 0
-1095 107 108 0
-1095 1092 0
-116 -119 1096 0
-117 -119 1096 0
-118 -119 1096 0
-1096 119 0
-1096 116 117 118 0
-1096 1092 0
-1092 1093 1094 1095 1096 0
-86 -90 1098 0
-1098 90 0
-1098 86 0
-1098 1097 0
-97 -101 1099 0
-1099 101 0
-1099 97 0
-1099 1097 0
-107 -111 1100 0
-108 -111 1100 0
-1100 111 0
-1100 107 108 0
-1100 1097 0
-116 -120 1101 0
-117 -120 1101 0
-118 -120 1101 0
-1101 120 0
-1101 116 117 118 0
-1101 1097 0
-1097 1098 1099 1100 1101 0
-86 -91 1103 0
-1103 91 0
-1103 86 0
-1103 1102 0
-97 -102 1104 0
-1104 102 0
-1104 97 0
-1104 1102 0
-107 -112 1105 0
-108 -112 1105 0
-1105 112 0
-1105 107 108 0
-1105 1102 0
-116 -121 1106 0
-117 -121 1106 0
-118 -121 1106 0
-1106 121 0
-1106 116 117 118 0
-1106 1102 0
-1102 1103 1104 1105 1106 0
-86 -92 1108 0
-1108 92 0
-1108 86 0
-1108 1107 0
-97 -103 1109 0
-1109 103 0
-1109 97 0
-1109 1107 0
-107 -113 1110 0
-108 -113 1110 0
-1110 113 0
-1110 107 108 0
-1110 1107 0
-116 -122 1111 0
-117 -122 1111 0
-118 -122 1111 0
-1111 122 0
-1111 116 117 118 0
-1111 1107 0
-1107 1108 1109 1110 1111 0
-87 -89 1113 0
-1113 89 0
-1113 87 0
-1113 1112 0
-98 -100 1114 0
-1114 100 0
-1114 98 0
-1114 1112 0
-108 -110 1115 0
-109 -110 1115 0
-1115 110 0
-1115 108 109 0
-1115 1112 0
-117 -119 1116 0
-118 -119 1116 0
-1116 119 0
-1116 117 118 0
-1116 1112 0
-1112 1113 1114 1115 1116 0
-87 -90 1118 0
-1118 90 0
-1118 87 0
-1118 1117 0
-98 -101 1119 0
-1119 101 0
-1119 98 0
-1119 1117 0
-108 -111 1120 0
-109 -111 1120 0
-1120 111 0
-1120 108 109 0
-1120 1117 0
-117 -120 1121 0
-118 -120 1121 0
-1121 120 0
-1121 117 118 0
-1121 1117 0
-1117 1118 1119 1120 1121 0
-87 -91 1123 0
-1123 91 0
-1123 87 0
-1123 1122 0
-98 -102 1124 0
-1124 102 0
-1124 98 0
-1124 1122 0
-108 -112 1125 0
-109 -112 1125 0
-1125 112 0
-1125 108 109 0
-1125 1122 0
-117 -121 1126 0
-118 -121 1126 0
-1126 121 0
-1126 117 118 0
-1126 1122 0
-1122 1123 1124 1125 1126 0
-87 -92 1128 0
-1128 92 0
-1128 87 0
-1128 1127 0
-98 -103 1129 0
-1129 103 0
-1129 98 0
-1129 1127 0
-108 -113 1130 0
-109 -113 1130 0
-1130 113 0
-1130 108 109 0
-1130 1127 0
-117 -122 1131 0
-118 -122 1131 0
-1131 122 0
-1131 117 118 0
-1131 1127 0
-1127 1128 1129 1130 1131 0
-88 -89 1133 0
-1133 89 0
-1133 88 0
-1133 1132 0
-99 -100 1134 0
-1134 100 0
-1134 99 0
-1134 1132 0
-109 -110 1135 0
-1135 110 0
-1135 109 0
-1135 1132 0
-118 -119 1136 0
-1136 119 0
-1136 118 0
-1136 1132 0
-1132 1133 1134 1135 1136 0
-88 -90 1138 0
-1138 90 0
-1138 88 0
-1138 1137 0
-99 -101 1139 0
-1139 101 0
-1139 99 0
-1139 1137 0
-109 -111 1140 0
-1140 111 0
-1140 109 0
-1140 1137 0
-118 -120 1141 0
-1141 120 0
-1141 118 0
-1141 1137 0
-1137 1138 1139 1140 1141 0
-88 -91 1143 0
-1143 91 0
-1143 88 0
-1143 1142 0
-99 -102 1144 0
-1144 102 0
-1144 99 0
-1144 1142 0
-109 -112 1145 0
-1145 112 0
-1145 109 0
-1145 1142 0
-118 -121 1146 0
-1146 121 0
-1146 118 0
-1146 1142 0
-1142 1143 1144 1145 1146 0
-88 -92 1148 0
-1148 92 0
-1148 88 0
-1148 1147 0
-99 -103 1149 0
-1149 103 0
-1149 99 0
-1149 1147 0
-109 -113 1150 0
-1150 113 0
-1150 109 0
-1150 1147 0
-118 -122 1151 0
-1151 122 0
-1151 118 0
-1151 1147 0
-1147 1148 1149 1150 1151 0
-124 -130 1153 0
-1153 130 0
-1153 124 0
-1153 1152 0
-135 -141 1154 0
-1154 141 0
-1154 135 0
-1154 1152 0
-146 -151 1155 0
-1155 151 0
-1155 146 0
-1155 1152 0
-156 -160 1156 0
-1156 160 0
-1156 156 0
-1156 1152 0
-1152 1153 1154 1155 1156 0
-124 -131 1158 0
-1158 131 0
-1158 124 0
-1158 1157 0
-135 -142 1159 0
-1159 142 0
-1159 135 0
-1159 1157 0
-146 -152 1160 0
-1160 152 0
-1160 146 0
-1160 1157 0
-156 -161 1161 0
-1161 161 0
-1161 156 0
-1161 1157 0
-1157 1158 1159 1160 1161 0
-124 -132 1163 0
-1163 132 0
-1163 124 0
-1163 1162 0
-135 -143 1164 0
-1164 143 0
-1164 135 0
-1164 1162 0
-146 -153 1165 0
-1165 153 0
-1165 146 0
-1165 1162 0
-156 -162 1166 0
-1166 162 0
-1166 156 0
-1166 1162 0
-1162 1163 1164 1165 1166 0
-124 -133 1168 0
-1168 133 0
-1168 124 0
-1168 1167 0
-135 -144 1169 0
-1169 144 0
-1169 135 0
-1169 1167 0
-146 -154 1170 0
-1170 154 0
-1170 146 0
-1170 1167 0
-156 -163 1171 0
-1171 163 0
-1171 156 0
-1171 1167 0
-1167 1168 1169 1170 1171 0
-125 -130 1173 0
-1173 130 0
-1173 125 0
-1173 1172 0
-136 -141 1174 0
-1174 141 0
-1174 136 0
-1174 1172 0
-146 -151 1175 0
-147 -151 1175 0
-1175 151 0
-1175 146 147 0
-1175 1172 0
-156 -160 1176 0
-157 -160 1176 0
-1176 160 0
-1176 156 157 0
-1176 1172 0
-1172 1173 1174 1175 1176 0
-125 -131 1178 0
-1178 131 0
-1178 125 0
-1178 1177 0
-136 -142 1179 0
-1179 142 0
-1179 136 0
-1179 1177 0
-146 -152 1180 0
-147 -152 1180 0
-1180 152 0
-1180 146 147 0
-1180 1177 0
-156 -161 1181 0
-157 -161 1181 0
-1181 161 0
-1181 156 157 0
-1181 1177 0
-1177 1178 1179 1180 1181 0
-125 -132 1183 0
-1183 132 0
-1183 125 0
-1183 1182 0
-136 -143 1184 0
-1184 143 0
-1184 136 0
-1184 1182 0
-146 -153 1185 0
-147 -153 1185 0
-1185 153 0
-1185 146 147 0
-1185 1182 0
-156 -162 1186 0
-157 -162 1186 0
-1186 162 0
-1186 156 157 0
-1186 1182 0
-1182 1183 1184 1185 1186 0
-125 -133 1188 0
-1188 133 0
-1188 125 0
-1188 1187 0
-136 -144 1189 0
-1189 144 0
-1189 136 0
-1189 1187 0
-146 -154 1190 0
-147 -154 1190 0
-1190 154 0
-1190 146 147 0
-1190 1187 0
-156 -163 1191 0
-157 -163 1191 0
-1191 163 0
-1191 156 157 0
-1191 1187 0
-1187 1188 1189 1190 1191 0
-126 -130 1193 0
-1193 130 0
-1193 126 0
-1193 1192 0
-137 -141 1194 0
-1194 141 0
-1194 137 0
-1194 1192 0
-147 -151 1195 0
-148 -151 1195 0
-1195 151 0
-1195 147 148 0
-1195 1192 0
-156 -160 1196 0
-157 -160 1196 0
-158 -160 1196 0
-1196 160 0
-1196 156 157 158 0
-1196 1192 0
-1192 1193 1194 1195 1196 0
-126 -131 1198 0
-1198 131 0
-1198 126 0
-1198 1197 0
-137 -142 1199 0
-1199 142 0
-1199 137 0
-1199 1197 0
-147 -152 1200 0
-148 -152 1200 0
-1200 152 0
-1200 147 148 0
-1200 1197 0
-156 -161 1201 0
-157 -161 1201 0
-158 -161 1201 0
-1201 161 0
-1201 156 157 158 0
-1201 1197 0
-1197 1198 1199 1200 1201 0
-126 -132 1203 0
-1203 132 0
-1203 126 0
-1203 1202 0
-137 -143 1204 0
-1204 143 0
-1204 137 0
-1204 1202 0
-147 -153 1205 0
-148 -153 1205 0
-1205 153 0
-1205 147 148 0
-1205 1202 0
-156 -162 1206 0
-157 -162 1206 0
-158 -162 1206 0
-1206 162 0
-1206 156 157 158 0
-1206 1202 0
-1202 1203 1204 1205 1206 0
-126 -133 1208 0
-1208 133 0
-1208 126 0
-1208 1207 0
-137 -144 1209 0
-1209 144 0
-1209 137 0
-1209 1207 0
-147 -154 1210 0
-148 -154 1210 0
-1210 154 0
-1210 147 148 0
-1210 1207 0
-156 -163 1211 0
-157 -163 1211 0
-158 -163 1211 0
-1211 163 0
-1211 156 157 158 0
-1211 1207 0
-1207 1208 1209 1210 1211 0
-127 -130 1213 0
-1213 130 0
-1213 127 0
-1213 1212 0
-138 -141 1214 0
-1214 141 0
-1214 138 0
-1214 1212 0
-148 -151 1215 0
-149 -151 1215 0
-1215 151 0
-1215 148 149 0
-1215 1212 0
-157 -160 1216 0
-158 -160 1216 0
-159 -160 1216 0
-1216 160 0
-1216 157 158 159 0
-1216 1212 0
-1212 1213 1214 1215 1216 0
-127 -131 1218 0
-1218 131 0
-1218 127 0
-1218 1217 0
-138 -142 1219 0
-1219 142 0
-1219 138 0
-1219 1217 0
-148 -152 1220 0
-149 -152 1220 0
-1220 152 0
-1220 148 149 0
-1220 1217 0
-157 -161 1221 0
-158 -161 1221 0
-159 -161 1221 0
-1221 161 0
-1221 157 158 159 0
-1221 1217 0
-1217 1218 1219 1220 1221 0
-127 -132 1223 0
-1223 132 0
-1223 127 0
-1223 1222 0
-138 -143 1224 0
-1224 143 0
-1224 138 0
-1224 1222 0
-148 -153 1225 0
-149 -153 1225 0
-1225 153 0
-1225 148 149 0
-1225 1222 0
-157 -162 1226 0
-158 -162 1226 0
-159 -162 1226 0
-1226 162 0
-1226 157 158 159 0
-1226 1222 0
-1222 1223 1224 1225 1226 0
-127 -133 1228 0
-1228 133 0
-1228 127 0
-1228 1227 0
-138 -144 1229 0
-1229 144 0
-1229 138 0
-1229 1227 0
-148 -154 1230 0
-149 -154 1230 0
-1230 154 0
-1230 148 149 0
-1230 1227 0
-157 -163 1231 0
-158 -163 1231 0
-159 -163 1231 0
-1231 163 0
-1231 157 158 159 0
-1231 1227 0
-1227 1228 1229 1230 1231 0
-128 -130 1233 0
-1233 130 0
-1233 128 0
-1233 1232 0
-139 -141 1234 0
-1234 141 0
-1234 139 0
-1234 1232 0
-149 -151 1235 0
-150 -151 1235 0
-1235 151 0
-1235 149 150 0
-1235 1232 0
-158 -160 1236 0
-159 -160 1236 0
-1236 160 0
-1236 158 159 0
-1236 1232 0
-1232 1233 1234 1235 1236 0
-128 -131 1238 0
-1238 131 0
-1238 128 0
-1238 1237 0
-139 -142 1239 0
-1239 142 0
-1239 139 0
-1239 1237 0
-149 -152 1240 0
-150 -152 1240 0
-1240 152 0
-1240 149 150 0
-1240 1237 0
-158 -161 1241 0
-159 -161 1241 0
-1241 161 0
-1241 158 159 0
-1241 1237 0
-1237 1238 1239 1240 1241 0
-128 -132 1243 0
-1243 132 0
-1243 128 0
-1243 1242 0
-139 -143 1244 0
-1244 143 0
-1244 139 0
-1244 1242 0
-149 -153 1245 0
-150 -153 1245 0
-1245 153 0
-1245 149 150 0
-1245 1242 0
-158 -162 1246 0
-159 -162 1246 0
-1246 162 0
-1246 158 159 0
-1246 1242 0
-1242 1243 1244 1245 1246 0
-128 -133 1248 0
-1248 133 0
-1248 128 0
-1248 1247 0
-139 -144 1249 0
-1249 144 0
-1249 139 0
-1249 1247 0
-149 -154 1250 0
-150 -154 1250 0
-1250 154 0
-1250 149 150 0
-1250 1247 0
-158 -163 1251 0
-159 -163 1251 0
-1251 163 0
-1251 158 159 0
-1251 1247 0
-1247 1248 1249 1250 1251 0
-129 -130 1253 0
-1253 130 0
-1253 129 0
-1253 1252 0
-140 -141 1254 0
-1254 141 0
-1254 140 0
-1254 1252 0
-150 -151 1255 0
-1255 151 0
-1255 150 0
-1255 1252 0
-159 -160 1256 0
-1256 160 0
-1256 159 0
-1256 1252 0
-1252 1253 1254 1255 1256 0
-129 -131 1258 0
-1258 131 0
-1258 129 0
-1258 1257 0
-140 -142 1259 0
-1259 142 0
-1259 140 0
-1259 1257 0
-150 -152 1260 0
-1260 152 0
-1260 150 0
-1260 1257 0
-159 -161 1261 0
-1261 161 0
-1261 159 0
-1261 1257 0
-1257 1258 1259 1260 1261 0
-129 -132 1263 0
-1263 132 0
-1263 129 0
-1263 1262 0
-140 -143 1264 0
-1264 143 0
-1264 140 0
-1264 1262 0
-150 -153 1265 0
-1265 153 0
-1265 150 0
-1265 1262 0
-159 -162 1266 0
-1266 162 0
-1266 159 0
-1266 1262 0
-1262 1263 1264 1265 1266 0
-129 -133 1268 0
-1268 133 0
-1268 129 0
-1268 1267 0
-140 -144 1269 0
-1269 144 0
-1269 140 0
-1269 1267 0
-150 -154 1270 0
-1270 154 0
-1270 150 0
-1270 1267 0
-159 -163 1271 0
-1271 163 0
-1271 159 0
-1271 1267 0
-1267 1268 1269 1270 1271 0
-165 -171 1273 0
-1273 171 0
-1273 165 0
-1273 1272 0
-176 -182 1274 0
-1274 182 0
-1274 176 0
-1274 1272 0
-187 -192 1275 0
-1275 192 0
-1275 187 0
-1275 1272 0
-197 -201 1276 0
-1276 201 0
-1276 197 0
-1276 1272 0
-1272 1273 1274 1275 1276 0
-165 -172 1278 0
-1278 172 0
-1278 165 0
-1278 1277 0
-176 -183 1279 0
-1279 183 0
-1279 176 0
-1279 1277 0
-187 -193 1280 0
-1280 193 0
-1280 187 0
-1280 1277 0
-197 -202 1281 0
-1281 202 0
-1281 197 0
-1281 1277 0
-1277 1278 1279 1280 1281 0
-165 -173 1283 0
-1283 173 0
-1283 165 0
-1283 1282 0
-176 -184 1284 0
-1284 184 0
-1284 176 0
-1284 1282 0
-187 -194 1285 0
-1285 194 0
-1285 187 0
-1285 1282 0
-197 -203 1286 0
-1286 203 0
-1286 197 0
-1286 1282 0
-1282 1283 1284 1285 1286 0
-165 -174 1288 0
-1288 174 0
-1288 165 0
-1288 1287 0
-176 -185 1289 0
-1289 185 0
-1289 176 0
-1289 1287 0
-187 -195 1290 0
-1290 195 0
-1290 187 0
-1290 1287 0
-197 -204 1291 0
-1291 204 0
-1291 197 0
-1291 1287 0
-1287 1288 1289 1290 1291 0
-166 -171 1293 0
-1293 171 0
-1293 166 0
-1293 1292 0
-177 -182 1294 0
-1294 182 0
-1294 177 0
-1294 1292 0
-187 -192 1295 0
-188 -192 1295 0
-1295 192 0
-1295 187 188 0
-1295 1292 0
-197 -201 1296 0
-198 -201 1296 0
-1296 201 0
-1296 197 198 0
-1296 1292 0
-1292 1293 1294 1295 1296 0
-166 -172 1298 0
-1298 172 0
-1298 166 0
-1298 1297 0
-177 -183 1299 0
-1299 183 0
-1299 177 0
-1299 1297 0
-187 -193 1300 0
-188 -193 1300 0
-1300 193 0
-1300 187 188 0
-1300 1297 0
-197 -202 1301 0
-198 -202 1301 0
-1301 202 0
-1301 197 198 0
-1301 1297 0
-1297 1298 1299 1300 1301 0
-166 -173 1303 0
-1303 173 0
-1303 166 0
-1303 1302 0
-177 -184 1304 0
-1304 184 0
-1304 177 0
-1304 1302 0
-187 -194 1305 0
-188 -194 1305 0
-1305 194 0
-1305 187 188 0
-1305 1302 0
-197 -203 1306 0
-198 -203 1306 0
-1306 203 0
-1306 197 198 0
-1306 1302 0
-1302 1303 1304 1305 1306 0
-166 -174 1308 0
-1308 174 0
-1308 166 0
-1308 1307 0
-177 -185 1309 0
-1309 185 0
-1309 177 0
-1309 1307 0
-187 -195 1310 0
-188 -195 1310 0
-1310 195 0
-1310 187 188 0
-1310 1307 0
-197 -204 1311 0
-198 -204 1311 0
-1311 204 0
-1311 197 198 0
-1311 1307 0
-1307 1308 1309 1310 1311 0
-167 -171 1313 0
-1313 171 0
-1313 167 0
-1313 1312 0
-178 -182 1314 0
-1314 182 0
-1314 178 0
-1314 1312 0
-188 -192 1315 0
-189 -192 1315 0
-1315 192 0
-1315 188 189 0
-1315 1312 0
-197 -201 1316 0
-198 -201 1316 0
-199 -201 1316 0
-1316 201 0
-1316 197 198 199 0
-1316 1312 0
-1312 1313 1314 1315 1316 0
-167 -172 1318 0
-1318 172 0
-1318 167 0
-1318 1317 0
-178 -183 1319 0
-1319 183 0
-1319 178 0
-1319 1317 0
-188 -193 1320 0
-189 -193 1320 0
-1320 193 0
-1320 188 189 0
-1320 1317 0
-197 -202 1321 0
-198 -202 1321 0
-199 -202 1321 0
-1321 202 0
-1321 197 198 199 0
-1321 1317 0
-1317 1318 1319 1320 1321 0
-167 -173 1323 0
-1323 173 0
-1323 167 0
-1323 1322 0
-178 -184 1324 0
-1324 184 0
-1324 178 0
-1324 1322 0
-188 -194 1325 0
-189 -194 1325 0
-1325 194 0
-1325 188 189 0
-1325 1322 0
-197 -203 1326 0
-198 -203 1326 0
-199 -203 1326 0
-1326 203 0
-1326 197 198 199 0
-1326 1322 0
-1322 1323 1324 1325 1326 0
-167 -174 1328 0
-1328 174 0
-1328 167 0
-1328 1327 0
-178 -185 1329 0
-1329 185 0
-1329 178 0
-1329 1327 0
-188 -195 1330 0
-189 -195 1330 0
-1330 195 0
-1330 188 189 0
-1330 1327 0
-197 -204 1331 0
-198 -204 1331 0
-199 -204 1331 0
-1331 204 0
-1331 197 198 199 0
-1331 1327 0
-1327 1328 1329 1330 1331 0
-168 -171 1333 0
-1333 171 0
-1333 168 0
-1333 1332 0
-179 -182 1334 0
-1334 182 0
-1334 179 0
-1334 1332 0
-189 -192 1335 0
-190 -192 1335 0
-1335 192 0
-1335 189 190 0
-1335 1332 0
-198 -201 1336 0
-199 -201 1336 0
-200 -201 1336 0
-1336 201 0
-1336 198 199 200 0
-1336 1332 0
-1332 1333 1334 1335 1336 0
-168 -172 1338 0
-1338 172 0
-1338 168 0
-1338 1337 0
-179 -183 1339 0
-1339 183 0
-1339 179 0
-1339 1337 0
-189 -193 1340 0
-190 -193 1340 0
-1340 193 0
-1340 189 190 0
-1340 1337 0
-198 -202 1341 0
-199 -202 1341 0
-200 -202 1341 0
-1341 202 0
-1341 198 199 200 0
-1341 1337 0
-1337 1338 1339 1340 1341 0
-168 -173 1343 0
-1343 173 0
-1343 168 0
-1343 1342 0
-179 -184 1344 0
-1344 184 0
-1344 179 0
-1344 1342 0
-189 -194 1345 0
-190 -194 1345 0
-1345 194 0
-1345 189 190 0
-1345 1342 0
-198 -203 1346 0
-199 -203 1346 0
-200 -203 1346 0
-1346 203 0
-1346 198 199 200 0
-1346 1342 0
-1342 1343 1344 1345 1346 0
-168 -174 1348 0
-1348 174 0
-1348 168 0
-1348 1347 0
-179 -185 1349 0
-1349 185 0
-1349 179 0
-1349 1347 0
-189 -195 1350 0
-190 -195 1350 0
-1350 195 0
-1350 189 190 0
-1350 1347 0
-198 -204 1351 0
-199 -204 1351 0
-200 -204 1351 0
-1351 204 0
-1351 198 199 200 0
-1351 1347 0
-1347 1348 1349 1350 1351 0
-169 -171 1353 0
-1353 171 0
-1353 169 0
-1353 1352 0
-180 -182 1354 0
-1354 182 0
-1354 180 0
-1354 1352 0
-190 -192 1355 0
-191 -192 1355 0
-1355 192 0
-1355 190 191 0
-1355 1352 0
-199 -201 1356 0
-200 -201 1356 0
-1356 201 0
-1356 199 200 0
-1356 1352 0
-1352 1353 1354 1355 1356 0
-169 -172 1358 0
-1358 172 0
-1358 169 0
-1358 1357 0
-180 -183 1359 0
-1359 183 0
-1359 180 0
-1359 1357 0
-190 -193 1360 0
-191 -193 1360 0
-1360 193 0
-1360 190 191 0
-1360 1357 0
-199 -202 1361 0
-200 -202 1361 0
-1361 202 0
-1361 199 200 0
-1361 1357 0
-1357 1358 1359 1360 1361 0
-169 -173 1363 0
-1363 173 0
-1363 169 0
-1363 1362 0
-180 -184 1364 0
-1364 184 0
-1364 180 0
-1364 1362 0
-190 -194 1365 0
-191 -194 1365 0
-1365 194 0
-1365 190 191 0
-1365 1362 0
-199 -203 1366 0
-200 -203 1366 0
-1366 203 0
-1366 199 200 0
-1366 1362 0
-1362 1363 1364 1365 1366 0
-169 -174 1368 0
-1368 174 0
-1368 169 0
-1368 1367 0
-180 -185 1369 0
-1369 185 0
-1369 180 0
-1369 1367 0
-190 -195 1370 0
-191 -195 1370 0
-1370 195 0
-1370 190 191 0
-1370 1367 0
-199 -204 1371 0
-200 -204 1371 0
-1371 204 0
-1371 199 200 0
-1371 1367 0
-1367 1368 1369 1370 1371 0
-170 -171 1373 0
-1373 171 0
-1373 170 0
-1373 1372 0
-181 -182 1374 0
-1374 182 0
-1374 181 0
-1374 1372 0
-191 -192 1375 0
-1375 192 0
-1375 191 0
-1375 1372 0
-200 -201 1376 0
-1376 201 0
-1376 200 0
-1376 1372 0
-1372 1373 1374 1375 1376 0
-170 -172 1378 0
-1378 172 0
-1378 170 0
-1378 1377 0
-181 -183 1379 0
-1379 183 0
-1379 181 0
-1379 1377 0
-191 -193 1380 0
-1380 193 0
-1380 191 0
-1380 1377 0
-200 -202 1381 0
-1381 202 0
-1381 200 0
-1381 1377 0
-1377 1378 1379 1380 1381 0
-170 -173 1383 0
-1383 173 0
-1383 170 0
-1383 1382 0
-181 -184 1384 0
-1384 184 0
-1384 181 0
-1384 1382 0
-191 -194 1385 0
-1385 194 0
-1385 191 0
-1385 1382 0
-200 -203 1386 0
-1386 203 0
-1386 200 0
-1386 1382 0
-1382 1383 1384 1385 1386 0
-170 -174 1388 0
-1388 174 0
-1388 170 0
-1388 1387 0
-181 -185 1389 0
-1389 185 0
-1389 181 0
-1389 1387 0
-191 -195 1390 0
-1390 195 0
-1390 191 0
-1390 1387 0
-200 -204 1391 0
-1391 204 0
-1391 200 0
-1391 1387 0
-1387 1388 1389 1390 1391 0
-206 -212 1393 0
-1393 212 0
-1393 206 0
-1393 1392 0
-217 -223 1394 0
-1394 223 0
-1394 217 0
-1394 1392 0
-228 -233 1395 0
-1395 233 0
-1395 228 0
-1395 1392 0
-238 -242 1396 0
-1396 242 0
-1396 238 0
-1396 1392 0
-1392 1393 1394 1395 1396 0
-206 -213 1398 0
-1398 213 0
-1398 206 0
-1398 1397 0
-217 -224 1399 0
-1399 224 0
-1399 217 0
-1399 1397 0
-228 -234 1400 0
-1400 234 0
-1400 228 0
-1400 1397 0
-238 -243 1401 0
-1401 243 0
-1401 238 0
-1401 1397 0
-1397 1398 1399 1400 1401 0
-206 -214 1403 0
-1403 214 0
-1403 206 0
-1403 1402 0
-217 -225 1404 0
-1404 225 0
-1404 217 0
-1404 1402 0
-228 -235 1405 0
-1405 235 0
-1405 228 0
-1405 1402 0
-238 -244 1406 0
-1406 244 0
-1406 238 0
-1406 1402 0
-1402 1403 1404 1405 1406 0
-206 -215 1408 0
-1408 215 0
-1408 206 0
-1408 1407 0
-217 -226 1409 0
-1409 226 0
-1409 217 0
-1409 1407 0
-228 -236 1410 0
-1410 236 0
-1410 228 0
-1410 1407 0
-238 -245 1411 0
-1411 245 0
-1411 238 0
-1411 1407 0
-1407 1408 1409 1410 1411 0
-207 -212 1413 0
-1413 212 0
-1413 207 0
-1413 1412 0
-218 -223 1414 0
-1414 223 0
-1414 218 0
-1414 1412 0
-228 -233 1415 0
-229 -233 1415 0
-1415 233 0
-1415 228 229 0
-1415 1412 0
-238 -242 1416 0
-239 -242 1416 0
-1416 242 0
-1416 238 239 0
-1416 1412 0
-1412 1413 1414 1415 1416 0
-207 -213 1418 0
-1418 213 0
-1418 207 0
-1418 1417 0
-218 -224 1419 0
-1419 224 0
-1419 218 0
-1419 1417 0
-228 -234 1420 0
-229 -234 1420 0
-1420 234 0
-1420 228 229 0
-1420 1417 0
-238 -243 1421 0
-239 -243 1421 0
-1421 243 0
-1421 238 239 0
-1421 1417 0
-1417 1418 1419 1420 1421 0
-207 -214 1423 0
-1423 214 0
-1423 207 0
-1423 1422 0
-218 -225 1424 0
-1424 225 0
-1424 218 0
-1424 1422 0
-228 -235 1425 0
-229 -235 1425 0
-1425 235 0
-1425 228 229 0
-1425 1422 0
-238 -244 1426 0
-239 -244 1426 0
-1426 244 0
-1426 238 239 0
-1426 1422 0
-1422 1423 1424 1425 1426 0
-207 -215 1428 0
-1428 215 0
-1428 207 0
-1428 1427 0
-218 -226 1429 0
-1429 226 0
-1429 218 0
-1429 1427 0
-228 -236 1430 0
-229 -236 1430 0
-1430 236 0
-1430 228 229 0
-1430 1427 0
-238 -245 1431 0
-239 -245 1431 0
-1431 245 0
-1431 238 239 0
-1431 1427 0
-1427 1428 1429 1430 1431 0
-208 -212 1433 0
-1433 212 0
-1433 208 0
-1433 1432 0
-219 -223 1434 0
-1434 223 0
-1434 219 0
-1434 1432 0
-229 -233 1435 0
-230 -233 1435 0
-1435 233 0
-1435 229 230 0
-1435 1432 0
-238 -242 1436 0
-239 -242 1436 0
-240 -242 1436 0
-1436 242 0
-1436 238 239 240 0
-1436 1432 0
-1432 1433 1434 1435 1436 0
-208 -213 1438 0
-1438 213 0
-1438 208 0
-1438 1437 0
-219 -224 1439 0
-1439 224 0
-1439 219 0
-1439 1437 0
-229 -234 1440 0
-230 -234 1440 0
-1440 234 0
-1440 229 230 0
-1440 1437 0
-238 -243 1441 0
-239 -243 1441 0
-240 -243 1441 0
-1441 243 0
-1441 238 239 240 0
-1441 1437 0
-1437 1438 1439 1440 1441 0
-208 -214 1443 0
-1443 214 0
-1443 208 0
-1443 1442 0
-219 -225 1444 0
-1444 225 0
-1444 219 0
-1444 1442 0
-229 -235 1445 0
-230 -235 1445 0
-1445 235 0
-1445 229 230 0
-1445 1442 0
-238 -244 1446 0
-239 -244 1446 0
-240 -244 1446 0
-1446 244 0
-1446 238 239 240 0
-1446 1442 0
-1442 1443 1444 1445 1446 0
-208 -215 1448 0
-1448 215 0
-1448 208 0
-1448 1447 0
-219 -226 1449 0
-1449 226 0
-1449 219 0
-1449 1447 0
-229 -236 1450 0
-230 -236 1450 0
-1450 236 0
-1450 229 230 0
-1450 1447 0
-238 -245 1451 0
-239 -245 1451 0
-240 -245 1451 0
-1451 245 0
-1451 238 239 240 0
-1451 1447 0
-1447 1448 1449 1450 1451 0
-209 -212 1453 0
-1453 212 0
-1453 209 0
-1453 1452 0
-220 -223 1454 0
-1454 223 0
-1454 220 0
-1454 1452 0
-230 -233 1455 0
-231 -233 1455 0
-1455 233 0
-1455 230 231 0
-1455 1452 0
-239 -242 1456 0
-240 -242 1456 0
-241 -242 1456 0
-1456 242 0
-1456 239 240 241 0
-1456 1452 0
-1452 1453 1454 1455 1456 0
-209 -213 1458 0
-1458 213 0
-1458 209 0
-1458 1457 0
-220 -224 1459 0
-1459 224 0
-1459 220 0
-1459 1457 0
-230 -234 1460 0
-231 -234 1460 0
-1460 234 0
-1460 230 231 0
-1460 1457 0
-239 -243 1461 0
-240 -243 1461 0
-241 -243 1461 0
-1461 243 0
-1461 239 240 241 0
-1461 1457 0
-1457 1458 1459 1460 1461 0
-209 -214 1463 0
-1463 214 0
-1463 209 0
-1463 1462 0
-220 -225 1464 0
-1464 225 0
-1464 220 0
-1464 1462 0
-230 -235 1465 0
-231 -235 1465 0
-1465 235 0
-1465 230 231 0
-1465 1462 0
-239 -244 1466 0
-240 -244 1466 0
-241 -244 1466 0
-1466 244 0
-1466 239 240 241 0
-1466 1462 0
-1462 1463 1464 1465 1466 0
-209 -215 1468 0
-1468 215 0
-1468 209 0
-1468 1467 0
-220 -226 1469 0
-1469 226 0
-1469 220 0
-1469 1467 0
-230 -236 1470 0
-231 -236 1470 0
-1470 236 0
-1470 230 231 0
-1470 1467 0
-239 -245 1471 0
-240 -245 1471 0
-241 -245 1471 0
-1471 245 0
-1471 239 240 241 0
-1471 1467 0
-1467 1468 1469 1470 1471 0
-210 -212 1473 0
-1473 212 0
-1473 210 0
-1473 1472 0
-221 -223 1474 0
-1474 223 0
-1474 221 0
-1474 1472 0
-231 -233 1475 0
-232 -233 1475 0
-1475 233 0
-1475 231 232 0
-1475 1472 0
-240 -242 1476 0
-241 -242 1476 0
-1476 242 0
-1476 240 241 0
-1476 1472 0
-1472 1473 1474 1475 1476 0
-210 -213 1478 0
-1478 213 0
-1478 210 0
-1478 1477 0
-221 -224 1479 0
-1479 224 0
-1479 221 0
-1479 1477 0
-231 -234 1480 0
-232 -234 1480 0
-1480 234 0
-1480 231 232 0
-1480 1477 0
-240 -243 1481 0
-241 -243 1481 0
-1481 243 0
-1481 240 241 0
-1481 1477 0
-1477 1478 1479 1480 1481 0
-210 -214 1483 0
-1483 214 0
-1483 210 0
-1483 1482 0
-221 -225 1484 0
-1484 225 0
-1484 221 0
-1484 1482 0
-231 -235 1485 0
-232 -235 1485 0
-1485 235 0
-1485 231 232 0
-1485 1482 0
-240 -244 1486 0
-241 -244 1486 0
-1486 244 0
-1486 240 241 0
-1486 1482 0
-1482 1483 1484 1485 1486 0
-210 -215 1488 0
-1488 215 0
-1488 210 0
-1488 1487 0
-221 -226 1489 0
-1489 226 0
-1489 221 0
-1489 1487 0
-231 -236 1490 0
-232 -236 1490 0
-1490 236 0
-1490 231 232 0
-1490 1487 0
-240 -245 1491 0
-241 -245 1491 0
-1491 245 0
-1491 240 241 0
-1491 1487 0
-1487 1488 1489 1490 1491 0
-211 -212 1493 0
-1493 212 0
-1493 211 0
-1493 1492 0
-222 -223 1494 0
-1494 223 0
-1494 222 0
-1494 1492 0
-232 -233 1495 0
-1495 233 0
-1495 232 0
-1495 1492 0
-241 -242 1496 0
-1496 242 0
-1496 241 0
-1496 1492 0
-1492 1493 1494 1495 1496 0
-211 -213 1498 0
-1498 213 0
-1498 211 0
-1498 1497 0
-222 -224 1499 0
-1499 224 0
-1499 222 0
-1499 1497 0
-232 -234 1500 0
-1500 234 0
-1500 232 0
-1500 1497 0
-241 -243 1501 0
-1501 243 0
-1501 241 0
-1501 1497 0
-1497 1498 1499 1500 1501 0
-211 -214 1503 0
-1503 214 0
-1503 211 0
-1503 1502 0
-222 -225 1504 0
-1504 225 0
-1504 222 0
-1504 1502 0
-232 -235 1505 0
-1505 235 0
-1505 232 0
-1505 1502 0
-241 -244 1506 0
-1506 244 0
-1506 241 0
-1506 1502 0
-1502 1503 1504 1505 1506 0
-211 -215 1508 0
-1508 215 0
-1508 211 0
-1508 1507 0
-222 -226 1509 0
-1509 226 0
-1509 222 0
-1509 1507 0
-232 -236 1510 0
-1510 236 0
-1510 232 0
-1510 1507 0
-241 -245 1511 0
-1511 245 0
-1511 241 0
-1511 1507 0
-1507 1508 1509 1510 1511 0
-247 -253 1513 0
-1513 253 0
-1513 247 0
-1513 1512 0
-258 -264 1514 0
-1514 264 0
-1514 258 0
-1514 1512 0
-269 -274 1515 0
-1515 274 0
-1515 269 0
-1515 1512 0
-279 -283 1516 0
-1516 283 0
-1516 279 0
-1516 1512 0
-1512 1513 1514 1515 1516 0
-247 -254 1518 0
-1518 254 0
-1518 247 0
-1518 1517 0
-258 -265 1519 0
-1519 265 0
-1519 258 0
-1519 1517 0
-269 -275 1520 0
-1520 275 0
-1520 269 0
-1520 1517 0
-279 -284 1521 0
-1521 284 0
-1521 279 0
-1521 1517 0
-1517 1518 1519 1520 1521 0
-247 -255 1523 0
-1523 255 0
-1523 247 0
-1523 1522 0
-258 -266 1524 0
-1524 266 0
-1524 258 0
-1524 1522 0
-269 -276 1525 0
-1525 276 0
-1525 269 0
-1525 1522 0
-279 -285 1526 0
-1526 285 0
-1526 279 0
-1526 1522 0
-1522 1523 1524 1525 1526 0
-247 -256 1528 0
-1528 256 0
-1528 247 0
-1528 1527 0
-258 -267 1529 0
-1529 267 0
-1529 258 0
-1529 1527 0
-269 -277 1530 0
-1530 277 0
-1530 269 0
-1530 1527 0
-279 -286 1531 0
-1531 286 0
-1531 279 0
-1531 1527 0
-1527 1528 1529 1530 1531 0
-248 -253 1533 0
-1533 253 0
-1533 248 0
-1533 1532 0
-259 -264 1534 0
-1534 264 0
-1534 259 0
-1534 1532 0
-269 -274 1535 0
-270 -274 1535 0
-1535 274 0
-1535 269 270 0
-1535 1532 0
-279 -283 1536 0
-280 -283 1536 0
-1536 283 0
-1536 279 280 0
-1536 1532 0
-1532 1533 1534 1535 1536 0
-248 -254 1538 0
-1538 254 0
-1538 248 0
-1538 1537 0
-259 -265 1539 0
-1539 265 0
-1539 259 0
-1539 1537 0
-269 -275 1540 0
-270 -275 1540 0
-1540 275 0
-1540 269 270 0
-1540 1537 0
-279 -284 1541 0
-280 -284 1541 0
-1541 284 0
-1541 279 280 0
-1541 1537 0
-1537 1538 1539 1540 1541 0
-248 -255 1543 0
-1543 255 0
-1543 248 0
-1543 1542 0
-259 -266 1544 0
-1544 266 0
-1544 259 0
-1544 1542 0
-269 -276 1545 0
-270 -276 1545 0
-1545 276 0
-1545 269 270 0
-1545 1542 0
-279 -285 1546 0
-280 -285 1546 0
-1546 285 0
-1546 279 280 0
-1546 1542 0
-1542 1543 1544 1545 1546 0
-248 -256 1548 0
-1548 256 0
-1548 248 0
-1548 1547 0
-259 -267 1549 0
-1549 267 0
-1549 259 0
-1549 1547 0
-269 -277 1550 0
-270 -277 1550 0
-1550 277 0
-1550 269 270 0
-1550 1547 0
-279 -286 1551 0
-280 -286 1551 0
-1551 286 0
-1551 279 280 0
-1551 1547 0
-1547 1548 1549 1550 1551 0
-249 -253 1553 0
-1553 253 0
-1553 249 0
-1553 1552 0
-260 -264 1554 0
-1554 264 0
-1554 260 0
-1554 1552 0
-270 -274 1555 0
-271 -274 1555 0
-1555 274 0
-1555 270 271 0
-1555 1552 0
-279 -283 1556 0
-280 -283 1556 0
-281 -283 1556 0
-1556 283 0
-1556 279 280 281 0
-1556 1552 0
-1552 1553 1554 1555 1556 0
-249 -254 1558 0
-1558 254 0
-1558 249 0
-1558 1557 0
-260 -265 1559 0
-1559 265 0
-1559 260 0
-1559 1557 0
-270 -275 1560 0
-271 -275 1560 0
-1560 275 0
-1560 270 271 0
-1560 1557 0
-279 -284 1561 0
-280 -284 1561 0
-281 -284 1561 0
-1561 284 0
-1561 279 280 281 0
-1561 1557 0
-1557 1558 1559 1560 1561 0
-249 -255 1563 0
-1563 255 0
-1563 249 0
-1563 1562 0
-260 -266 1564 0
-1564 266 0
-1564 260 0
-1564 1562 0
-270 -276 1565 0
-271 -276 1565 0
-1565 276 0
-1565 270 271 0
-1565 1562 0
-279 -285 1566 0
-280 -285 1566 0
-281 -285 1566 0
-1566 285 0
-1566 279 280 281 0
-1566 1562 0
-1562 1563 1564 1565 1566 0
-249 -256 1568 0
-1568 256 0
-1568 249 0
-1568 1567 0
-260 -267 1569 0
-1569 267 0
-1569 260 0
-1569 1567 0
-270 -277 1570 0
-271 -277 1570 0
-1570 277 0
-1570 270 271 0
-1570 1567 0
-279 -286 1571 0
-280 -286 1571 0
-281 -286 1571 0
-1571 286 0
-1571 279 280 281 0
-1571 1567 0
-1567 1568 1569 1570 1571 0
-250 -253 1573 0
-1573 253 0
-1573 250 0
-1573 1572 0
-261 -264 1574 0
-1574 264 0
-1574 261 0
-1574 1572 0
-271 -274 1575 0
-272 -274 1575 0
-1575 274 0
-1575 271 272 0
-1575 1572 0
-280 -283 1576 0
-281 -283 1576 0
-282 -283 1576 0
-1576 283 0
-1576 280 281 282 0
-1576 1572 0
-1572 1573 1574 1575 1576 0
-250 -254 1578 0
-1578 254 0
-1578 250 0
-1578 1577 0
-261 -265 1579 0
-1579 265 0
-1579 261 0
-1579 1577 0
-271 -275 1580 0
-272 -275 1580 0
-1580 275 0
-1580 271 272 0
-1580 1577 0
-280 -284 1581 0
-281 -284 1581 0
-282 -284 1581 0
-1581 284 0
-1581 280 281 282 0
-1581 1577 0
-1577 1578 1579 1580 1581 0
-250 -255 1583 0
-1583 255 0
-1583 250 0
-1583 1582 0
-261 -266 1584 0
-1584 266 0
-1584 261 0
-1584 1582 0
-271 -276 1585 0
-272 -276 1585 0
-1585 276 0
-1585 271 272 0
-1585 1582 0
-280 -285 1586 0
-281 -285 1586 0
-282 -285 1586 0
-1586 285 0
-1586 280 281 282 0
-1586 1582 0
-1582 1583 1584 1585 1586 0
-250 -256 1588 0
-1588 256 0
-1588 250 0
-1588 1587 0
-261 -267 1589 0
-1589 267 0
-1589 261 0
-1589 1587 0
-271 -277 1590 0
-272 -277 1590 0
-1590 277 0
-1590 271 272 0
-1590 1587 0
-280 -286 1591 0
-281 -286 1591 0
-282 -286 1591 0
-1591 286 0
-1591 280 281 282 0
-1591 1587 0
-1587 1588 1589 1590 1591 0
-251 -253 1593 0
-1593 253 0
-1593 251 0
-1593 1592 0
-262 -264 1594 0
-1594 264 0
-1594 262 0
-1594 1592 0
-272 -274 1595 0
-273 -274 1595 0
-1595 274 0
-1595 272 273 0
-1595 1592 0
-281 -283 1596 0
-282 -283 1596 0
-1596 283 0
-1596 281 282 0
-1596 1592 0
-1592 1593 1594 1595 1596 0
-251 -254 1598 0
-1598 254 0
-1598 251 0
-1598 1597 0
-262 -265 1599 0
-1599 265 0
-1599 262 0
-1599 1597 0
-272 -275 1600 0
-273 -275 1600 0
-1600 275 0
-1600 272 273 0
-1600 1597 0
-281 -284 1601 0
-282 -284 1601 0
-1601 284 0
-1601 281 282 0
-1601 1597 0
-1597 1598 1599 1600 1601 0
-251 -255 1603 0
-1603 255 0
-1603 251 0
-1603 1602 0
-262 -266 1604 0
-1604 266 0
-1604 262 0
-1604 1602 0
-272 -276 1605 0
-273 -276 1605 0
-1605 276 0
-1605 272 273 0
-1605 1602 0
-281 -285 1606 0
-282 -285 1606 0
-1606 285 0
-1606 281 282 0
-1606 1602 0
-1602 1603 1604 1605 1606 0
-251 -256 1608 0
-1608 256 0
-1608 251 0
-1608 1607 0
-262 -267 1609 0
-1609 267 0
-1609 262 0
-1609 1607 0
-272 -277 1610 0
-273 -277 1610 0
-1610 277 0
-1610 272 273 0
-1610 1607 0
-281 -286 1611 0
-282 -286 1611 0
-1611 286 0
-1611 281 282 0
-1611 1607 0
-1607 1608 1609 1610 1611 0
-252 -253 1613 0
-1613 253 0
-1613 252 0
-1613 1612 0
-263 -264 1614 0
-1614 264 0
-1614 263 0
-1614 1612 0
-273 -274 1615 0
-1615 274 0
-1615 273 0
-1615 1612 0
-282 -283 1616 0
-1616 283 0
-1616 282 0
-1616 1612 0
-1612 1613 1614 1615 1616 0
-252 -254 1618 0
-1618 254 0
-1618 252 0
-1618 1617 0
-263 -265 1619 0
-1619 265 0
-1619 263 0
-1619 1617 0
-273 -275 1620 0
-1620 275 0
-1620 273 0
-1620 1617 0
-282 -284 1621 0
-1621 284 0
-1621 282 0
-1621 1617 0
-1617 1618 1619 1620 1621 0
-252 -255 1623 0
-1623 255 0
-1623 252 0
-1623 1622 0
-263 -266 1624 0
-1624 266 0
-1624 263 0
-1624 1622 0
-273 -276 1625 0
-1625 276 0
-1625 273 0
-1625 1622 0
-282 -285 1626 0
-1626 285 0
-1626 282 0
-1626 1622 0
-1622 1623 1624 1625 1626 0
-252 -256 1628 0
-1628 256 0
-1628 252 0
-1628 1627 0
-263 -267 1629 0
-1629 267 0
-1629 263 0
-1629 1627 0
-273 -277 1630 0
-1630 277 0
-1630 273 0
-1630 1627 0
-282 -286 1631 0
-1631 286 0
-1631 282 0
-1631 1627 0
-1627 1628 1629 1630 1631 0
23 0
28 0
4 0
7 0
17 0
18 0
36 0
38 0
269 0
274 0
247 0
254 0
259 0
265 0
282 0
283 0
1 2 3 4 5 6 0
-1 -2 0
-1 -3 0
-1 -4 0
-1 -5 0
-1 -6 0
-2 -3 0
-2 -4 0
-2 -5 0
-2 -6 0
-3 -4 0
-3 -5 0
-3 -6 0
-4 -5 0
-4 -6 0
-5 -6 0
7 8 9 10 0
-7 -8 0
-7 -9 0
-7 -10 0
-8 -9 0
-8 -10 0
-9 -10 0
12 13 14 15 16 17 0
-12 -13 0
-12 -14 0
-12 -15 0
-12 -16 0
-12 -17 0
-13 -14 0
-13 -15 0
-13 -16 0
-13 -17 0
-14 -15 0
-14 -16 0
-14 -17 0
-15 -16 0
-15 -17 0
-16 -17 0
18 19 20 21 0
-18 -19 0
-18 -20 0
-18 -21 0
-19 -20 0
-19 -21 0
-20 -21 0
23 24 25 26 27 0
-23 -24 0
-23 -25 0
-23 -26 0
-23 -27 0
-24 -25 0
-24 -26 0
-24 -27 0
-25 -26 0
-25 -27 0
-26 -27 0
28 29 30 31 0
-28 -29 0
-28 -30 0
-28 -31 0
-29 -30 0
-29 -31 0
-30 -31 0
33 34 35 36 0
-33 -34 0
-33 -35 0
-33 -36 0
-34 -35 0
-34 -36 0
-35 -36 0
37 38 39 40 0
-37 -38 0
-37 -39 0
-37 -40 0
-38 -39 0
-38 -40 0
-39 -40 0
42 43 44 45 46 47 0
-42 -43 0
-42 -44 0
-42 -45 0
-42 -46 0
-42 -47 0
-43 -44 0
-43 -45 0
-43 -46 0
-43 -47 0
-44 -45 0
-44 -46 0
-44 -47 0
-45 -46 0
-45 -47 0
-46 -47 0
48 49 50 51 0
-48 -49 0
-48 -50 0
-48 -51 0
-49 -50 0
-49 -51 0
-50 -51 0
53 54 55 56 57 58 0
-53 -54 0
-53 -55 0
-53 -56 0
-53 -57 0
-53 -58 0
-54 -55 0
-54 -56 0
-54 -57 0
-54 -58 0
-55 -56 0
-55 -57 0
-55 -58 0
-56 -57 0
-56 -58 0
-57 -58 0
59 60 61 62 0
-59 -60 0
-59 -61 0
-59 -62 0
-60 -61 0
-60 -62 0
-61 -62 0
64 65 66 67 68 0
-64 -65 0
-64 -66 0
-64 -67 0
-64 -68 0
-65 -66 0
-65 -67 0
-65 -68 0
-66 -67 0
-66 -68 0
-67 -68 0
69 70 71 72 0
-69 -70 0
-69 -71 0
-69 -72 0
-70 -71 0
-70 -72 0
-71 -72 0
74 75 76 77 0
-74 -75 0
-74 -76 0
-74 -77 0
-75 -76 0
-75 -77 0
-76 -77 0
78 79 80 81 0
-78 -79 0
-78 -80 0
-78 -81 0
-79 -80 0
-79 -81 0
-80 -81 0
83 84 85 86 87 88 0
-83 -84 0
-83 -85 0
-83 -86 0
-83 -87 0
-83 -88 0
-84 -85 0
-84 -86 0
-84 -87 0
-84 -88 0
-85 -86 0
-85 -87 0
-85 -88 0
-86 -87 0
-86 -88 0
-87 -88 0
89 90 91 92 0
-89 -90 0
-89 -91 0
-89 -92 0
-90 -91 0
-90 -92 0
-91 -92 0
94 95 96 97 98 99 0
-94 -95 0
-94 -96 0
-94 -97 0
-94 -98 0
-94 -99 0
-95 -96 0
-95 -97 0
-95 -98 0
-95 -99 0
-96 -97 0
-96 -98 0
-96 -99 0
-97 -98 0
-97 -99 0
-98 -99 0
100 101 102 103 0
-100 -101 0
-100 -102 0
-100 -103 0
-101 -102 0
-101 -103 0
-102 -103 0
105 106 107 108 109 0
-105 -106 0
-105 -107 0
-105 -108 0
-105 -109 0
-106 -107 0
-106 -108 0
-106 -109 0
-107 -108 0
-107 -109 0
-108 -109 0
110 111 112 113 0
-110 -111 0
-110 -112 0
-110 -113 0
-111 -112 0
-111 -113 0
-112 -113 0
115 116 117 118 0
-115 -116 0
-115 -117 0
-115 -118 0
-116 -117 0
-116 -118 0
-117 -118 0
119 120 121 122 0
-119 -120 0
-119 -121 0
-119 -122 0
-120 -121 0
-120 -122 0
-121 -122 0
124 125 126 127 128 129 0
-124 -125 0
-124 -126 0
-124 -127 0
-124 -128 0
-124 -129 0
-125 -126 0
-125 -127 0
-125 -128 0
-125 -129 0
-126 -127 0
-126 -128 0
-126 -129 0
-127 -128 0
-127 -129 0
-128 -129 0
130 131 132 133 0
-130 -131 0
-130 -132 0
-130 -133 0
-131 -132 0
-131 -133 0
-132 -133 0
135 136 137 138 139 140 0
-135 -136 0
-135 -137 0
-135 -138 0
-135 -139 0
-135 -140 0
-136 -137 0
-136 -138 0
-136 -139 0
-136 -140 0
-137 -138 0
-137 -139 0
-137 -140 0
-138 -139 0
-138 -140 0
-139 -140 0
141 142 143 144 0
-141 -142 0
-141 -143 0
-141 -144 0
-142 -143 0
-142 -144 0
-143 -144 0
146 147 148 149 150 0
-146 -147 0
-146 -148 0
-146 -149 0
-146 -150 0
-147 -148 0
-147 -149 0
-147 -150 0
-148 -149 0
-148 -150 0
-149 -150 0
151 152 153 154 0
-151 -152 0
-151 -153 0
-151 -154 0
-152 -153 0
-152 -154 0
-153 -154 0
156 157 158 159 0
-156 -157 0
-156 -158 0
-156 -159 0
-157 -158 0
-157 -159 0
-158 -159 0
160 161 162 163 0
-160 -161 0
-160 -162 0
-160 -163 0
-161 -162 0
-161 -163 0
-162 -163 0
165 166 167 168 169 170 0
-165 -166 0
-165 -167 0
-165 -168 0
-165 -169 0
-165 -170 0
-166 -167 0
-166 -168 0
-166 -169 0
-166 -170 0
-167 -168 0
-167 -169 0
-167 -170 0
-168 -169 0
-168 -170 0
-169 -170 0
171 172 173 174 0
-171 -172 0
-171 -173 0
-171 -174 0
-172 -173 0
-172 -174 0
-173 -174 0
176 177 178 179 180 181 0
-176 -177 0
-176 -178 0
-176 -179 0
-176 -180 0
-176 -181 0
-177 -178 0
-177 -179 0
-177 -180 0
-177 -181 0
-178 -179 0
-178 -180 0
-178 -181 0
-179 -180 0
-179 -181 0
-180 -181 0
182 183 184 185 0
-182 -183 0
-182 -184 0
-182 -185 0
-183 -184 0
-183 -185 0
-184 -185 0
187 188 189 190 191 0
-187 -188 0
-187 -189 0
-187 -190 0
-187 -191 0
-188 -189 0
-188 -190 0
-188 -191 0
-189 -190 0
-189 -191 0
-190 -191 0
192 193 194 195 0
-192 -193 0
-192 -194 0
-192 -195 0
-193 -194 0
-193 -195 0
-194 -195 0
197 198 199 200 0
-197 -198 0
-197 -199 0
-197 -200 0
-198 -199 0
-198 -200 0
-199 -200 0
201 202 203 204 0
-201 -202 0
-201 -203 0
-201 -204 0
-202 -203 0
-202 -204 0
-203 -204 0
206 207 208 209 210 211 0
-206 -207 0
-206 -208 0
-206 -209 0
-206 -210 0
-206 -211 0
-207 -208 0
-207 -209 0
-207 -210 0
-207 -211 0
-208 -209 0
-208 -210 0
-208 -211 0
-209 -210 0
-209 -211 0
-210 -211 0
212 213 214 215 0
-212 -213 0
-212 -214 0
-212 -215 0
-213 -214 0
-213 -215 0
-214 -215 0
217 218 219 220 221 222 0
-217 -218 0
-217 -219 0
-217 -220 0
-217 -221 0
-217 -222 0
-218 -219 0
-218 -220 0
-218 -221 0
-218 -222 0
-219 -220 0
-219 -221 0
-219 -222 0
-220 -221 0
-220 -222 0
-221 -222 0
223 224 225 226 0
-223 -224 0
-223 -225 0
-223 -226 0
-224 -225 0
-224 -226 0
-225 -226 0
228 229 230 231 232 0
-228 -229 0
-228 -230 0
-228 -231 0
-228 -232 0
-229 -230 0
-229 -231 0
-229 -232 0
-230 -231 0
-230 -232 0
-231 -232 0
233 234 235 236 0
-233 -234 0
-233 -235 0
-233 -236 0
-234 -235 0
-234 -236 0
-235 -236 0
238 239 240 241 0
-238 -239 0
-238 -240 0
-238 -241 0
-239 -240 0
-239 -241 0
-240 -241 0
242 243 244 245 0
-242 -243 0
-242 -244 0
-242 -245 0
-243 -244 0
-243 -245 0
-244 -245 0
247 248 249 250 251 252 0
-247 -248 0
-247 -249 0
-247 -250 0
-247 -251 0
-247 -252 0
-248 -249 0
-248 -250 0
-248 -251 0
-248 -252 0
-249 -250 0
-249 -251 0
-249 -252 0
-250 -251 0
-250 -252 0
-251 -252 0
253 254 255 256 0
-253 -254 0
-253 -255 0
-253 -256 0
-254 -255 0
-254 -256 0
-255 -256 0
258 259 260 261 262 263 0
-258 -259 0
-258 -260 0
-258 -261 0
-258 -262 0
-258 -263 0
-259 -260 0
-259 -261 0
-259 -262 0
-259 -263 0
-260 -261 0
-260 -262 0
-260 -263 0
-261 -262 0
-261 -263 0
-262 -263 0
264 265 266 267 0
-264 -265 0
-264 -266 0
-264 -267 0
-265 -266 0
-265 -267 0
-266 -267 0
269 270 271 272 273 0
-269 -270 0
-269 -271 0
-269 -272 0
-269 -273 0
-270 -271 0
-270 -272 0
-270 -273 0
-271 -272 0
-271 -273 0
-272 -273 0
274 275 276 277 0
-274 -275 0
-274 -276 0
-274 -277 0
-275 -276 0
-275 -277 0
-276 -277 0
279 280 281 282 0
-279 -280 0
-279 -281 0
-279 -282 0
-280 -281 0
-280 -282 0
-281 -282 0
283 284 285 286 0
-283 -284 0
-283 -285 0
-283 -286 0
-284 -285 0
-284 -286 0
-285 -286 0
-1 -7 -12 -18 0
-1 -8 -12 -19 0
-1 -9 -12 -20 0
-1 -10 -12 -21 0
-2 -7 -13 -18 0
-2 -8 -13 -19 0
-2 -9 -13 -20 0
-2 -10 -13 -21 0
-3 -7 -14 -18 0
-3 -8 -14 -19 0
-3 -9 -14 -20 0
-3 -10 -14 -21 0
-4 -7 -15 -18 0
-4 -8 -15 -19 0
-4 -9 -15 -20 0
-4 -10 -15 -21 0
-5 -7 -16 -18 0
-5 -8 -16 -19 0
-5 -9 -16 -20 0
-5 -10 -16 -21 0
-6 -7 -17 -18 0
-6 -8 -17 -19 0
-6 -9 -17 -20 0
-6 -10 -17 -21 0
-1 -7 -23 -28 0
-1 -8 -23 -29 0
-1 -9 -23 -30 0
-1 -10 -23 -31 0
-2 -7 -23 -28 0
-2 -8 -23 -29 0
-2 -9 -23 -30 0
-2 -10 -23 -31 0
-2 -7 -24 -28 0
-2 -8 -24 -29 0
-2 -9 -24 -30 0
-2 -10 -24 -31 0
-3 -7 -24 -28 0
-3 -8 -24 -29 0
-3 -9 -24 -30 0
-3 -10 -24 -31 0
-3 -7 -25 -28 0
-3 -8 -25 -29 0
-3 -9 -25 -30 0
-3 -10 -25 -31 0
-4 -7 -25 -28 0
-4 -8 -25 -29 0
-4 -9 -25 -30 0
-4 -10 -25 -31 0
-4 -7 -26 -28 0
-4 -8 -26 -29 0
-4 -9 -26 -30 0
-4 -10 -26 -31 0
-5 -7 -26 -28 0
-5 -8 -26 -29 0
-5 -9 -26 -30 0
-5 -10 -26 -31 0
-5 -7 -27 -28 0
-5 -8 -27 -29 0
-5 -9 -27 -30 0
-5 -10 -27 -31 0
-6 -7 -27 -28 0
-6 -8 -27 -29 0
-6 -9 -27 -30 0
-6 -10 -27 -31 0
-1 -7 -33 -37 0
-1 -8 -33 -38 0
-1 -9 -33 -39 0
-1 -10 -33 -40 0
-2 -7 -33 -37 0
-2 -8 -33 -38 0
-2 -9 -33 -39 0
-2 -10 -33 -40 0
-2 -7 -34 -37 0
-2 -8 -34 -38 0
-2 -9 -34 -39 0
-2 -10 -34 -40 0
-3 -7 -33 -37 0
-3 -8 -33 -38 0
-3 -9 -33 -39 0
-3 -10 -33 -40 0
-3 -7 -34 -37 0
-3 -8 -34 -38 0
-3 -9 -34 -39 0
-3 -10 -34 -40 0
-3 -7 -35 -37 0
-3 -8 -35 -38 0
-3 -9 -35 -39 0
-3 -10 -35 -40 0
-4 -7 -34 -37 0
-4 -8 -34 -38 0
-4 -9 -34 -39 0
-4 -10 -34 -40 0
-4 -7 -35 -37 0
-4 -8 -35 -38 0
-4 -9 -35 -39 0
-4 -10 -35 -40 0
-4 -7 -36 -37 0
-4 -8 -36 -38 0
-4 -9 -36 -39 0
-4 -10 -36 -40 0
-5 -7 -35 -37 0
-5 -8 -35 -38 0
-5 -9 -35 -39 0
-5 -10 -35 -40 0
-5 -7 -36 -37 0
-5 -8 -36 -38 0
-5 -9 -36 -39 0
-5 -10 -36 -40 0
-6 -7 -36 -37 0
-6 -8 -36 -38 0
-6 -9 -36 -39 0
-6 -10 -36 -40 0
-12 -18 -23 -28 0
-12 -19 -23 -29 0
-12 -20 -23 -30 0
-12 -21 -23 -31 0
-13 -18 -23 -28 0
-13 -19 -23 -29 0
-13 -20 -23 -30 0
-13 -21 -23 -31 0
-13 -18 -24 -28 0
-13 -19 -24 -29 0
-13 -20 -24 -30 0
-13 -21 -24 -31 0
-14 -18 -24 -28 0
-14 -19 -24 -29 0
-14 -20 -24 -30 0
-14 -21 -24 -31 0
-14 -18 -25 -28 0
-14 -19 -25 -29 0
-14 -20 -25 -30 0
-14 -21 -25 -31 0
-15 -18 -25 -28 0
-15 -19 -25 -29 0
-15 -20 -25 -30 0
-15 -21 -25 -31 0
-15 -18 -26 -28 0
-15 -19 -26 -29 0
-15 -20 -26 -30 0
-15 -21 -26 -31 0
-16 -18 -26 -28 0
-16 -19 -26 -29 0
-16 -20 -26 -30 0
-16 -21 -26 -31 0
-16 -18 -27 -28 0
-16 -19 -27 -29 0
-16 -20 -27 -30 0
-16 -21 -27 -31 0
-17 -18 -27 -28 0
-17 -19 -27 -29 0
-17 -20 -27 -30 0
-17 -21 -27 -31 0
-12 -18 -33 -37 0
-12 -19 -33 -38 0
-12 -20 -33 -39 0
-12 -21 -33 -40 0
-13 -18 -33 -37 0
-13 -19 -33 -38 0
-13 -20 -33 -39 0
-13 -21 -33 -40 0
-13 -18 -34 -37 0
-13 -19 -34 -38 0
-13 -20 -34 -39 0
-13 -21 -34 -40 0
-14 -18 -33 -37 0
-14 -19 -33 -38 0
-14 -20 -33 -39 0
-14 -21 -33 -40 0
-14 -18 -34 -37 0
-14 -19 -34 -38 0
-14 -20 -34 -39 0
-14 -21 -34 -40 0
-14 -18 -35 -37 0
-14 -19 -35 -38 0
-14 -20 -35 -39 0
-14 -21 -35 -40 0
-15 -18 -34 -37 0
-15 -19 -34 -38 0
-15 -20 -34 -39 0
-15 -21 -34 -40 0
-15 -18 -35 -37 0
-15 -19 -35 -38 0
-15 -20 -35 -39 0
-15 -21 -35 -40 0
-15 -18 -36 -37 0
-15 -19 -36 -38 0
-15 -20 -36 -39 0
-15 -21 -36 -40 0
-16 -18 -35 -37 0
-16 -19 -35 -38 0
-16 -20 -35 -39 0
-16 -21 -35 -40 0
-16 -18 -36 -37 0
-16 -19 -36 -38 0
-16 -20 -36 -39 0
-16 -21 -36 -40 0
-17 -18 -36 -37 0
-17 -19 -36 -38 0
-17 -20 -36 -39 0
-17 -21 -36 -40 0
-23 -28 -33 -37 0
-23 -29 -33 -38 0
-23 -30 -33 -39 0
-23 -31 -33 -40 0
-23 -28 -34 -37 0
-23 -29 -34 -38 0
-23 -30 -34 -39 0
-23 -31 -34 -40 0
-24 -28 -33 -37 0
-24 -29 -33 -38 0
-24 -30 -33 -39 0
-24 -31 -33 -40 0
-24 -28 -34 -37 0
-24 -29 -34 -38 0
-24 -30 -34 -39 0
-24 -31 -34 -40 0
-24 -28 -35 -37 0
-24 -29 -35 -38 0
-24 -30 -35 -39 0
-24 -31 -35 -40 0
-25 -28 -33 -37 0
-25 -29 -33 -38 0
-25 -30 -33 -39 0
-25 -31 -33 -40 0
-25 -28 -34 -37 0
-25 -29 -34 -38 0
-25 -30 -34 -39 0
-25 -31 -34 -40 0
-25 -28 -35 -37 0
-25 -29 -35 -38 0
-25 -30 -35 -39 0
-25 -31 -35 -40 0
-25 -28 -36 -37 0
-25 -29 -36 -38 0
-25 -30 -36 -39 0
-25 -31 -36 -40 0
-26 -28 -34 -37 0
-26 -29 -34 -38 0
-26 -30 -34 -39 0
-26 -31 -34 -40 0
-26 -28 -35 -37 0
-26 -29 -35 -38 0
-26 -30 -35 -39 0
-26 -31 -35 -40 0
-26 -28 -36 -37 0
-26 -29 -36 -38 0
-26 -30 -36 -39 0
-26 -31 -36 -40 0
-27 -28 -35 -37 0
-27 -29 -35 -38 0
-27 -30 -35 -39 0
-27 -31 -35 -40 0
-27 -28 -36 -37 0
-27 -29 -36 -38 0
-27 -30 -36 -39 0
-27 -31 -36 -40 0
-42 -48 -53 -59 0
-42 -49 -53 -60 0
-42 -50 -53 -61 0
-42 -51 -53 -62 0
-43 -48 -54 -59 0
-43 -49 -54 -60 0
-43 -50 -54 -61 0
-43 -51 -54 -62 0
-44 -48 -55 -59 0
-44 -49 -55 -60 0
-44 -50 -55 -61 0
-44 -51 -55 -62 0
-45 -48 -56 -59 0
-45 -49 -56 -60 0
-45 -50 -56 -61 0
-45 -51 -56 -62 0
-46 -48 -57 -59 0
-46 -49 -57 -60 0
-46 -50 -57 -61 0
-46 -51 -57 -62 0
-47 -48 -58 -59 0
-47 -49 -58 -60 0
-47 -50 -58 -61 0
-47 -51 -58 -62 0
-42 -48 -64 -69 0
-42 -49 -64 -70 0
-42 -50 -64 -71 0
-42 -51 -64 -72 0
-43 -48 -64 -69 0
-43 -49 -64 -70 0
-43 -50 -64 -71 0
-43 -51 -64 -72 0
-43 -48 -65 -69 0
-43 -49 -65 -70 0
-43 -50 -65 -71 0
-43 -51 -65 -72 0
-44 -48 -65 -69 0
-44 -49 -65 -70 0
-44 -50 -65 -71 0
-44 -51 -65 -72 0
-44 -48 -66 -69 0
-44 -49 -66 -70 0
-44 -50 -66 -71 0
-44 -51 -66 -72 0
-45 -48 -66 -69 0
-45 -49 -66 -70 0
-45 -50 -66 -71 0
-45 -51 -66 -72 0
-45 -48 -67 -69 0
-45 -49 -67 -70 0
-45 -50 -67 -71 0
-45 -51 -67 -72 0
-46 -48 -67 -69 0
-46 -49 -67 -70 0
-46 -50 -67 -71 0
-46 -51 -67 -72 0
-46 -48 -68 -69 0
-46 -49 -68 -70 0
-46 -50 -68 -71 0
-46 -51 -68 -72 0
-47 -48 -68 -69 0
-47 -49 -68 -70 0
-47 -50 -68 -71 0
-47 -51 -68 -72 0
-42 -48 -74 -78 0
-42 -49 -74 -79 0
-42 -50 -74 -80 0
-42 -51 -74 -81 0
-43 -48 -74 -78 0
-43 -49 -74 -79 0
-43 -50 -74 -80 0
-43 -51 -74 -81 0
-43 -48 -75 -78 0
-43 -49 -75 -79 0
-43 -50 -75 -80 0
-43 -51 -75 -81 0
-44 -48 -74 -78 0
-44 -49 -74 -79 0
-44 -50 -74 -80 0
-44 -51 -74 -81 0
-44 -48 -75 -78 0
-44 -49 -75 -79 0
-44 -50 -75 -80 0
-44 -51 -75 -81 0
-44 -48 -76 -78 0
-44 -49 -76 -79 0
-44 -50 -76 -80 0
-44 -51 -76 -81 0
-45 -48 -75 -78 0
-45 -49 -75 -79 0
-45 -50 -75 -80 0
-45 -51 -75 -81 0
-45 -48 -76 -78 0
-45 -49 -76 -79 0
-45 -50 -76 -80 0
-45 -51 -76 -81 0
-45 -48 -77 -78 0
-45 -49 -77 -79 0
-45 -50 -77 -80 0
-45 -51 -77 -81 0
-46 -48 -76 -78 0
-46 -49 -76 -79 0
-46 -50 -76 -80 0
-46 -51 -76 -81 0
-46 -48 -77 -78 0
-46 -49 -77 -79 0
-46 -50 -77 -80 0
-46 -51 -77 -81 0
-47 -48 -77 -78 0
-47 -49 -77 -79 0
-47 -50 -77 -80 0
-47 -51 -77 -81 0
-53 -59 -64 -69 0
-53 -60 -64 -70 0
-53 -61 -64 -71 0
-53 -62 -64 -72 0
-54 -59 -64 -69 0
-54 -60 -64 -70 0
-54 -61 -64 -71 0
-54 -62 -64 -72 0
-54 -59 -65 -69 0
-54 -60 -65 -70 0
-54 -61 -65 -71 0
-54 -62 -65 -72 0
-55 -59 -65 -69 0
-55 -60 -65 -70 0
-55 -61 -65 -71 0
-55 -62 -65 -72 0
-55 -59 -66 -69 0
-55 -60 -66 -70 0
-55 -61 -66 -71 0
-55 -62 -66 -72 0
-56 -59 -66 -69 0
-56 -60 -66 -70 0
-56 -61 -66 -71 0
-56 -62 -66 -72 0
-56 -59 -67 -69 0
-56 -60 -67 -70 0
-56 -61 -67 -71 0
-56 -62 -67 -72 0
-57 -59 -67 -69 0
-57 -60 -67 -70 0
-57 -61 -67 -71 0
-57 -62 -67 -72 0
-57 -59 -68 -69 0
-57 -60 -68 -70 0
-57 -61 -68 -71 0
-57 -62 -68 -72 0
-58 -59 -68 -69 0
-58 -60 -68 -70 0
-58 -61 -68 -71 0
-58 -62 -68 -72 0
-53 -59 -74 -78 0
-53 -60 -74 -79 0
-53 -61 -74 -80 0
-53 -62 -74 -81 0
-54 -59 -74 -78 0
-54 -60 -74 -79 0
-54 -61 -74 -80 0
-54 -62 -74 -81 0
-54 -59 -75 -78 0
-54 -60 -75 -79 0
-54 -61 -75 -80 0
-54 -62 -75 -81 0
-55 -59 -74 -78 0
-55 -60 -74 -79 0
-55 -61 -74 -80 0
-55 -62 -74 -81 0
-55 -59 -75 -78 0
-55 -60 -75 -79 0
-55 -61 -75 -80 0
-55 -62 -75 -81 0
-55 -59 -76 -78 0
-55 -60 -76 -79 0
-55 -61 -76 -80 0
-55 -62 -76 -81 0
-56 -59 -75 -78 0
-56 -60 -75 -79 0
-56 -61 -75 -80 0
-56 -62 -75 -81 0
-56 -59 -76 -78 0
-56 -60 -76 -79 0
-56 -61 -76 -80 0
-56 -62 -76 -81 0
-56 -59 -77 -78 0
-56 -60 -77 -79 0
-56 -61 -77 -80 0
-56 -62 -77 -81 0
-57 -59 -76 -78 0
-57 -60 -76 -79 0
-57 -61 -76 -80 0
-57 -62 -76 -81 0
-57 -59 -77 -78 0
-57 -60 -77 -79 0
-57 -61 -77 -80 0
-57 -62 -77 -81 0
-58 -59 -77 -78 0
-58 -60 -77 -79 0
-58 -61 -77 -80 0
-58 -62 -77 -81 0
-64 -69 -74 -78 0
-64 -70 -74 -79 0
-64 -71 -74 -80 0
-64 -72 -74 -81 0
-64 -69 -75 -78 0
-64 -70 -75 -79 0
-64 -71 -75 -80 0
-64 -72 -75 -81 0
-65 -69 -74 -78 0
-65 -70 -74 -79 0
-65 -71 -74 -80 0
-65 -72 -74 -81 0
-65 -69 -75 -78 0
-65 -70 -75 -79 0
-65 -71 -75 -80 0
-65 -72 -75 -81 0
-65 -69 -76 -78 0
-65 -70 -76 -79 0
-65 -71 -76 -80 0
-65 -72 -76 -81 0
-66 -69 -74 -78 0
-66 -70 -74 -79 0
-66 -71 -74 -80 0
-66 -72 -74 -81 0
-66 -69 -75 -78 0
-66 -70 -75 -79 0
-66 -71 -75 -80 0
-66 -72 -75 -81 0
-66 -69 -76 -78 0
-66 -70 -76 -79 0
-66 -71 -76 -80 0
-66 -72 -76 -81 0
-66 -69 -77 -78 0
-66 -70 -77 -79 0
-66 -71 -77 -80 0
-66 -72 -77 -81 0
-67 -69 -75 -78 0
-67 -70 -75 -79 0
-67 -71 -75 -80 0
-67 -72 -75 -81 0
-67 -69 -76 -78 0
-67 -70 -76 -79 0
-67 -71 -76 -80 0
-67 -72 -76 -81 0
-67 -69 -77 -78 0
-67 -70 -77 -79 0
-67 -71 -77 -80 0
-67 -72 -77 -81 0
-68 -69 -76 -78 0
-68 -70 -76 -79 0
-68 -71 -76 -80 0
-68 -72 -76 -81 0
-68 -69 -77 -78 0
-68 -70 -77 -79 0
-68 -71 -77 -80 0
-68 -72 -77 -81 0
-83 -89 -94 -100 0
-83 -90 -94 -101 0
-83 -91 -94 -102 0
-83 -92 -94 -103 0
-84 -89 -95 -100 0
-84 -90 -95 -101 0
-84 -91 -95 -102 0
-84 -92 -95 -103 0
-85 -89 -96 -100 0
-85 -90 -96 -101 0
-85 -91 -96 -102 0
-85 -92 -96 -103 0
-86 -89 -97 -100 0
-86 -90 -97 -101 0
-86 -91 -97 -102 0
-86 -92 -97 -103 0
-87 -89 -98 -100 0
-87 -90 -98 -101 0
-87 -91 -98 -102 0
-87 -92 -98 -103 0
-88 -89 -99 -100 0
-88 -90 -99 -101 0
-88 -91 -99 -102 0
-88 -92 -99 -103 0
-83 -89 -105 -110 0
-83 -90 -105 -111 0
-83 -91 -105 -112 0
-83 -92 -105 -113 0
-84 -89 -105 -110 0
-84 -90 -105 -111 0
-84 -91 -105 -112 0
-84 -92 -105 -113 0
-84 -89 -106 -110 0
-84 -90 -106 -111 0
-84 -91 -106 -112 0
-84 -92 -106 -113 0
-85 -89 -106 -110 0
-85 -90 -106 -111 0
-85 -91 -106 -112 0
-85 -92 -106 -113 0
-85 -89 -107 -110 0
-85 -90 -107 -111 0
-85 -91 -107 -112 0
-85 -92 -107 -113 0
-86 -89 -107 -110 0
-86 -90 -107 -111 0
-86 -91 -107 -112 0
-86 -92 -107 -113 0
-86 -89 -108 -110 0
-86 -90 -108 -111 0
-86 -91 -108 -112 0
-86 -92 -108 -113 0
-87 -89 -108 -110 0
-87 -90 -108 -111 0
-87 -91 -108 -112 0
-87 -92 -108 -113 0
-87 -89 -109 -110 0
-87 -90 -109 -111 0
-87 -91 -109 -112 0
-87 -92 -109 -113 0
-88 -89 -109 -110 0
-88 -90 -109 -111 0
-88 -91 -109 -112 0
-88 -92 -109 -113 0
-83 -89 -115 -119 0
-83 -90 -115 -120 0
-83 -91 -115 -121 0
-83 -92 -115 -122 0
-84 -89 -115 -119 0
-84 -90 -115 -120 0
-84 -91 -115 -121 0
-84 -92 -115 -122 0
-84 -89 -116 -119 0
-84 -90 -116 -120 0
-84 -91 -116 -121 0
-84 -92 -116 -122 0
-85 -89 -115 -119 0
-85 -90 -115 -120 0
-85 -91 -115 -121 0
-85 -92 -115 -122 0
-85 -89 -116 -119 0
-85 -90 -116 -120 0
-85 -91 -116 -121 0
-85 -92 -116 -122 0
-85 -89 -117 -119 0
-85 -90 -117 -120 0
-85 -91 -117 -121 0
-85 -92 -117 -122 0
-86 -89 -116 -119 0
-86 -90 -116 -120 0
-86 -91 -116 -121 0
-86 -92 -116 -122 0
-86 -89 -117 -119 0
-86 -90 -117 -120 0
-86 -91 -117 -121 0
-86 -92 -117 -122 0
-86 -89 -118 -119 0
-86 -90 -118 -120 0
-86 -91 -118 -121 0
-86 -92 -118 -122 0
-87 -89 -117 -119 0
-87 -90 -117 -120 0
-87 -91 -117 -121 0
-87 -92 -117 -122 0
-87 -89 -118 -119 0
-87 -90 -118 -120 0
-87 -91 -118 -121 0
-87 -92 -118 -122 0
-88 -89 -118 -119 0
-88 -90 -118 -120 0
-88 -91 -118 -121 0
-88 -92 -118 -122 0
-94 -100 -105 -110 0
-94 -101 -105 -111 0
-94 -102 -105 -112 0
-94 -103 -105 -113 0
-95 -100 -105 -110 0
-95 -101 -105 -111 0
-95 -102 -105 -112 0
-95 -103 -105 -113 0
-95 -100 -106 -110 0
-95 -101 -106 -111 0
-95 -102 -106 -112 0
-95 -103 -106 -113 0
-96 -100 -106 -110 0
-96 -101 -106 -111 0
-96 -102 -106 -112 0
-96 -103 -106 -113 0
-96 -100 -107 -110 0
-96 -101 -107 -111 0
-96 -102 -107 -112 0
-96 -103 -107 -113 0
-97 -100 -107 -110 0
-97 -101 -107 -111 0
-97 -102 -107 -112 0
-97 -103 -107 -113 0
-97 -100 -108 -110 0
-97 -101 -108 -111 0
-97 -102 -108 -112 0
-97 -103 -108 -113 0
-98 -100 -108 -110 0
-98 -101 -108 -111 0
-98 -102 -108 -112 0
-98 -103 -108 -113 0
-98 -100 -109 -110 0
-98 -101 -109 -111 0
-98 -102 -109 -112 0
-98 -103 -109 -113 0
-99 -100 -109 -110 0
-99 -101 -109 -111 0
-99 -102 -109 -112 0
-99 -103 -109 -113 0
-94 -100 -115 -119 0
-94 -101 -115 -120 0
-94 -102 -115 -121 0
-94 -103 -115 -122 0
-95 -100 -115 -119 0
-95 -101 -115 -120 0
-95 -102 -115 -121 0
-95 -103 -115 -122 0
-95 -100 -116 -119 0
-95 -101 -116 -120 0
-95 -102 -116 -121 0
-95 -103 -116 -122 0
-96 -100 -115 -119 0
-96 -101 -115 -120 0
-96 -102 -115 -121 0
-96 -103 -115 -122 0
-96 -100 -116 -119 0
-96 -101 -116 -120 0
-96 -102 -116 -121 0
-96 -103 -116 -122 0
-96 -100 -117 -119 0
-96 -101 -117 -120 0
-96 -102 -117 -121 0
-96 -103 -117 -122 0
-97 -100 -116 -119 0
-97 -101 -116 -120 0
-97 -102 -116 -121 0
-97 -103 -116 -122 0
-97 -100 -117 -119 0
-97 -101 -117 -120 0
-97 -102 -117 -121 0
-97 -103 -117 -122 0
-97 -100 -118 -119 0
-97 -101 -118 -120 0
-97 -102 -118 -121 0
-97 -103 -118 -122 0
-98 -100 -117 -119 0
-98 -101 -117 -120 0
-98 -102 -117 -121 0
-98 -103 -117 -122 0
-98 -100 -118 -119 0
-98 -101 -118 -120 0
-98 -102 -118 -121 0
-98 -103 -118 -122 0
-99 -100 -118 -119 0
-99 -101 -118 -120 0
-99 -102 -118 -121 0
-99 -103 -118 -122 0
-105 -110 -115 -119 0
-105 -111 -115 -120 0
-105 -112 -115 -121 0
-105 -113 -115 -122 0
-105 -110 -116 -119 0
-105 -111 -116 -120 0
-105 -112 -116 -121 0
-105 -113 -116 -122 0
-106 -110 -115 -119 0
-106 -111 -115 -120 0
-106 -112 -115 -121 0
-106 -113 -115 -122 0
-106 -110 -116 -119 0
-106 -111 -116 -120 0
-106 -112 -116 -121 0
-106 -113 -116 -122 0
-106 -110 -117 -119 0
-106 -111 -117 -120 0
-106 -112 -117 -121 0
-106 -113 -117 -122 0
-107 -110 -115 -119 0
-107 -111 -115 -120 0
-107 -112 -115 -121 0
-107 -113 -115 -122 0
-107 -110 -116 -119 0
-107 -111 -116 -120 0
-107 -112 -116 -121 0
-107 -113 -116 -122 0
-107 -110 -117 -119 0
-107 -111 -117 -120 0
-107 -112 -117 -121 0
-107 -113 -117 -122 0
-107 -110 -118 -119 0
-107 -111 -118 -120 0
-107 -112 -118 -121 0
-107 -113 -118 -122 0
-108 -110 -116 -119 0
-108 -111 -116 -120 0
-108 -112 -116 -121 0
-108 -113 -116 -122 0
-108 -110 -117 -119 0
-108 -111 -117 -120 0
-108 -112 -117 -121 0
-108 -113 -117 -122 0
-108 -110 -118 -119 0
-108 -111 -118 -120 0
-108 -112 -118 -121 0
-108 -113 -118 -122 0
-109 -110 -117 -119 0
-109 -111 -117 -120 0
-109 -112 -117 -121 0
-109 -113 -117 -122 0
-109 -110 -118 -119 0
-109 -111 -118 -120 0
-109 -112 -118 -121 0
-109 -113 -118 -122 0
-124 -130 -135 -141 0
-124 -131 -135 -142 0
-124 -132 -135 -143 0
-124 -133 -135 -144 0
-125 -130 -136 -141 0
-125 -131 -136 -142 0
-125 -132 -136 -143 0
-125 -133 -136 -144 0
-126 -130 -137 -141 0
-126 -131 -137 -142 0
-126 -132 -137 -143 0
-126 -133 -137 -144 0
-127 -130 -138 -141 0
-127 -131 -138 -142 0
-127 -132 -138 -143 0
-127 -133 -138 -144 0
-128 -130 -139 -141 0
-128 -131 -139 -142 0
-128 -132 -139 -143 0
-128 -133 -139 -144 0
-129 -130 -140 -141 0
-129 -131 -140 -142 0
-129 -132 -140 -143 0
-129 -133 -140 -144 0
-124 -130 -146 -151 0
-124 -131 -146 -152 0
-124 -132 -146 -153 0
-124 -133 -146 -154 0
-125 -130 -146 -151 0
-125 -131 -146 -152 0
-125 -132 -146 -153 0
-125 -133 -146 -154 0
-125 -130 -147 -151 0
-125 -131 -147 -152 0
-125 -132 -147 -153 0
-125 -133 -147 -154 0
-126 -130 -147 -151 0
-126 -131 -147 -152 0
-126 -132 -147 -153 0
-126 -133 -147 -154 0
-126 -130 -148 -151 0
-126 -131 -148 -152 0
-126 -132 -148 -153 0
-126 -133 -148 -154 0
-127 -130 -148 -151 0
-127 -131 -148 -152 0
-127 -132 -148 -153 0
-127 -133 -148 -154 0
-127 -130 -149 -151 0
-127 -131 -149 -152 0
-127 -132 -149 -153 0
-127 -133 -149 -154 0
-128 -130 -149 -151 0
-128 -131 -149 -152 0
-128 -132 -149 -153 0
-128 -133 -149 -154 0
-128 -130 -150 -151 0
-128 -131 -150 -152 0
-128 -132 -150 -153 0
-128 -133 -150 -154 0
-129 -130 -150 -151 0
-129 -131 -150 -152 0
-129 -132 -150 -153 0
-129 -133 -150 -154 0
-124 -130 -156 -160 0
-124 -131 -156 -161 0
-124 -132 -156 -162 0
-124 -133 -156 -163 0
-125 -130 -156 -160 0
-125 -131 -156 -161 0
-125 -132 -156 -162 0
-125 -133 -156 -163 0
-125 -130 -157 -160 0
-125 -131 -157 -161 0
-125 -132 -157 -162 0
-125 -133 -157 -163 0
-126 -130 -156 -160 0
-126 -131 -156 -161 0
-126 -132 -156 -162 0
-126 -133 -156 -163 0
-126 -130 -157 -160 0
-126 -131 -157 -161 0
-126 -132 -157 -162 0
-126 -133 -157 -163 0
-126 -130 -158 -160 0
-126 -131 -158 -161 0
-126 -132 -158 -162 0
-126 -133 -158 -163 0
-127 -130 -157 -160 0
-127 -131 -157 -161 0
-127 -132 -157 -162 0
-127 -133 -157 -163 0
-127 -130 -158 -160 0
-127 -131 -158 -161 0
-127 -132 -158 -162 0
-127 -133 -158 -163 0
-127 -130 -159 -160 0
-127 -131 -159 -161 0
-127 -132 -159 -162 0
-127 -133 -159 -163 0
-128 -130 -158 -160 0
-128 -131 -158 -161 0
-128 -132 -158 -162 0
-128 -133 -158 -163 0
-128 -130 -159 -160 0
-128 -131 -159 -161 0
-128 -132 -159 -162 0
-128 -133 -159 -163 0
-129 -130 -159 -160 0
-129 -131 -159 -161 0
-129 -132 -159 -162 0
-129 -133 -159 -163 0
-135 -141 -146 -151 0
-135 -142 -146 -152 0
-135 -143 -146 -153 0
-135 -144 -146 -154 0
-136 -141 -146 -151 0
-136 -142 -146 -152 0
-136 -143 -146 -153 0
-136 -144 -146 -154 0
-136 -141 -147 -151 0
-136 -142 -147 -152 0
-136 -143 -147 -153 0
-136 -144 -147 -154 0
-137 -141 -147 -151 0
-137 -142 -147 -152 0
-137 -143 -147 -153 0
-137 -144 -147 -154 0
-137 -141 -148 -151 0
-137 -142 -148 -152 0
-137 -143 -148 -153 0
-137 -144 -148 -154 0
-138 -141 -148 -151 0
-138 -142 -148 -152 0
-138 -143 -148 -153 0
-138 -144 -148 -154 0
-138 -141 -149 -151 0
-138 -142 -149 -152 0
-138 -143 -149 -153 0
-138 -144 -149 -154 0
-139 -141 -149 -151 0
-139 -142 -149 -152 0
-139 -143 -149 -153 0
-139 -144 -149 -154 0
-139 -141 -150 -151 0
-139 -142 -150 -152 0
-139 -143 -150 -153 0
-139 -144 -150 -154 0
-140 -141 -150 -151 0
-140 -142 -150 -152 0
-140 -143 -150 -153 0
-140 -144 -150 -154 0
-135 -141 -156 -160 0
-135 -142 -156 -161 0
-135 -143 -156 -162 0
-135 -144 -156 -163 0
-136 -141 -156 -160 0
-136 -142 -156 -161 0
-136 -143 -156 -162 0
-136 -144 -156 -163 0
-136 -141 -157 -160 0
-136 -142 -157 -161 0
-136 -143 -157 -162 0
-136 -144 -157 -163 0
-137 -141 -156 -160 0
-137 -142 -156 -161 0
-137 -143 -156 -162 0
-137 -144 -156 -163 0
-137 -141 -157 -160 0
-137 -142 -157 -161 0
-137 -143 -157 -162 0
-137 -144 -157 -163 0
-137 -141 -158 -160 0
-137 -142 -158 -161 0
-137 -143 -158 -162 0
-137 -144 -158 -163 0
-138 -141 -157 -160 0
-138 -142 -157 -161 0
-138 -143 -157 -162 0
-138 -144 -157 -163 0
-138 -141 -158 -160 0
-138 -142 -158 -161 0
-138 -143 -158 -162 0
-138 -144 -158 -163 0
-138 -141 -159 -160 0
-138 -142 -159 -161 0
-138 -143 -159 -162 0
-138 -144 -159 -163 0
-139 -141 -158 -160 0
-139 -142 -158 -161 0
-139 -143 -158 -162 0
-139 -144 -158 -163 0
-139 -141 -159 -160 0
-139 -142 -159 -161 0
-139 -143 -159 -162 0
-139 -144 -159 -163 0
-140 -141 -159 -160 0
-140 -142 -159 -161 0
-140 -143 -159 -162 0
-140 -144 -159 -163 0
-146 -151 -156 -160 0
-146 -152 -156 -161 0
-146 -153 -156 -162 0
-146 -154 -156 -163 0
-146 -151 -157 -160 0
-146 -152 -157 -161 0
-146 -153 -157 -162 0
-146 -154 -157 -163 0
-147 -151 -156 -160 0
-147 -152 -156 -161 0
-147 -153 -156 -162 0
-147 -154 -156 -163 0
-147 -151 -157 -160 0
-147 -152 -157 -161 0
-147 -153 -157 -162 0
-147 -154 -157 -163 0
-147 -151 -158 -160 0
-147 -152 -158 -161 0
-147 -153 -158 -162 0
-147 -154 -158 -163 0
-148 -151 -156 -160 0
-148 -152 -156 -161 0
-148 -153 -156 -162 0
-148 -154 -156 -163 0
-148 -151 -157 -160 0
-148 -152 -157 -161 0
-148 -153 -157 -162 0
-148 -154 -157 -163 0
-148 -151 -158 -160 0
-148 -152 -158 -161 0
-148 -153 -158 -162 0
-148 -154 -158 -163 0
-148 -151 -159 -160 0
-148 -152 -159 -161 0
-148 -153 -159 -162 0
-148 -154 -159 -163 0
-149 -151 -157 -160 0
-149 -152 -157 -161 0
-149 -153 -157 -162 0
-149 -154 -157 -163 0
-149 -151 -158 -160 0
-149 -152 -158 -161 0
-149 -153 -158 -162 0
-149 -154 -158 -163 0
-149 -151 -159 -160 0
-149 -152 -159 -161 0
-149 -153 -159 -162 0
-149 -154 -159 -163 0
-150 -151 -158 -160 0
-150 -152 -158 -161 0
-150 -153 -158 -162 0
-150 -154 -158 -163 0
-150 -151 -159 -160 0
-150 -152 -159 -161 0
-150 -153 -159 -162 0
-150 -154 -159 -163 0
-165 -171 -176 -182 0
-165 -172 -176 -183 0
-165 -173 -176 -184 0
-165 -174 -176 -185 0
-166 -171 -177 -182 0
-166 -172 -177 -183 0
-166 -173 -177 -184 0
-166 -174 -177 -185 0
-167 -171 -178 -182 0
-167 -172 -178 -183 0
-167 -173 -178 -184 0
-167 -174 -178 -185 0
-168 -171 -179 -182 0
-168 -172 -179 -183 0
-168 -173 -179 -184 0
-168 -174 -179 -185 0
-169 -171 -180 -182 0
-169 -172 -180 -183 0
-169 -173 -180 -184 0
-169 -174 -180 -185 0
-170 -171 -181 -182 0
-170 -172 -181 -183 0
-170 -173 -181 -184 0
-170 -174 -181 -185 0
-165 -171 -187 -192 0
-165 -172 -187 -193 0
-165 -173 -187 -194 0
-165 -174 -187 -195 0
-166 -171 -187 -192 0
-166 -172 -187 -193 0
-166 -173 -187 -194 0
-166 -174 -187 -195 0
-166 -171 -188 -192 0
-166 -172 -188 -193 0
-166 -173 -188 -194 0
-166 -174 -188 -195 0
-167 -171 -188 -192 0
-167 -172 -188 -193 0
-167 -173 -188 -194 0
-167 -174 -188 -195 0
-167 -171 -189 -192 0
-167 -172 -189 -193 0
-167 -173 -189 -194 0
-167 -174 -189 -195 0
-168 -171 -189 -192 0
-168 -172 -189 -193 0
-168 -173 -189 -194 0
-168 -174 -189 -195 0
-168 -171 -190 -192 0
-168 -172 -190 -193 0
-168 -173 -190 -194 0
-168 -174 -190 -195 0
-169 -171 -190 -192 0
-169 -172 -190 -193 0
-169 -173 -190 -194 0
-169 -174 -190 -195 0
-169 -171 -191 -192 0
-169 -172 -191 -193 0
-169 -173 -191 -194 0
-169 -174 -191 -195 0
-170 -171 -191 -192 0
-170 -172 -191 -193 0
-170 -173 -191 -194 0
-170 -174 -191 -195 0
-165 -171 -197 -201 0
-165 -172 -197 -202 0
-165 -173 -197 -203 0
-165 -174 -197 -204 0
-166 -171 -197 -201 0
-166 -172 -197 -202 0
-166 -173 -197 -203 0
-166 -174 -197 -204 0
-166 -171 -198 -201 0
-166 -172 -198 -202 0
-166 -173 -198 -203 0
-166 -174 -198 -204 0
-167 -171 -197 -201 0
-167 -172 -197 -202 0
-167 -173 -197 -203 0
-167 -174 -197 -204 0
-167 -171 -198 -201 0
-167 -172 -198 -202 0
-167 -173 -198 -203 0
-167 -174 -198 -204 0
-167 -171 -199 -201 0
-167 -172 -199 -202 0
-167 -173 -199 -203 0
-167 -174 -199 -204 0
-168 -171 -198 -201 0
-168 -172 -198 -202 0
-168 -173 -198 -203 0
-168 -174 -198 -204 0
-168 -171 -199 -201 0
-168 -172 -199 -202 0
-168 -173 -199 -203 0
-168 -174 -199 -204 0
-168 -171 -200 -201 0
-168 -172 -200 -202 0
-168 -173 -200 -203 0
-168 -174 -200 -204 0
-169 -171 -199 -201 0
-169 -172 -199 -202 0
-169 -173 -199 -203 0
-169 -174 -199 -204 0
-169 -171 -200 -201 0
-169 -172 -200 -202 0
-169 -173 -200 -203 0
-169 -174 -200 -204 0
-170 -171 -200 -201 0
-170 -172 -200 -202 0
-170 -173 -200 -203 0
-170 -174 -200 -204 0
-176 -182 -187 -192 0
-176 -183 -187 -193 0
-176 -184 -187 -194 0
-176 -185 -187 -195 0
-177 -182 -187 -192 0
-177 -183 -187 -193 0
-177 -184 -187 -194 0
-177 -185 -187 -195 0
-177 -182 -188 -192 0
-177 -183 -188 -193 0
-177 -184 -188 -194 0
-177 -185 -188 -195 0
-178 -182 -188 -192 0
-178 -183 -188 -193 0
-178 -184 -188 -194 0
-178 -185 -188 -195 0
-178 -182 -189 -192 0
-178 -183 -189 -193 0
-178 -184 -189 -194 0
-178 -185 -189 -195 0
-179 -182 -189 -192 0
-179 -183 -189 -193 0
-179 -184 -189 -194 0
-179 -185 -189 -195 0
-179 -182 -190 -192 0
-179 -183 -190 -193 0
-179 -184 -190 -194 0
-179 -185 -190 -195 0
-180 -182 -190 -192 0
-180 -183 -190 -193 0
-180 -184 -190 -194 0
-180 -185 -190 -195 0
-180 -182 -191 -192 0
-180 -183 -191 -193 0
-180 -184 -191 -194 0
-180 -185 -191 -195 0
-181 -182 -191 -192 0
-181 -183 -191 -193 0
-181 -184 -191 -194 0
-181 -185 -191 -195 0
-176 -182 -197 -201 0
-176 -183 -197 -202 0
-176 -184 -197 -203 0
-176 -185 -197 -204 0
-177 -182 -197 -201 0
-177 -183 -197 -202 0
-177 -184 -197 -203 0
-177 -185 -197 -204 0
-177 -182 -198 -201 0
-177 -183 -198 -202 0
-177 -184 -198 -203 0
-177 -185 -198 -204 0
-178 -182 -197 -201 0
-178 -183 -197 -202 0
-178 -184 -197 -203 0
-178 -185 -197 -204 0
-178 -182 -198 -201 0
-178 -183 -198 -202 0
-178 -184 -198 -203 0
-178 -185 -198 -204 0
-178 -182 -199 -201 0
-178 -183 -199 -202 0
-178 -184 -199 -203 0
-178 -185 -199 -204 0
-179 -182 -198 -201 0
-179 -183 -198 -202 0
-179 -184 -198 -203 0
-179 -185 -198 -204 0
-179 -182 -199 -201 0
-179 -183 -199 -202 0
-179 -184 -199 -203 0
-179 -185 -199 -204 0
-179 -182 -200 -201 0
-179 -183 -200 -202 0
-179 -184 -200 -203 0
-179 -185 -200 -204 0
-180 -182 -199 -201 0
-180 -183 -199 -202 0
-180 -184 -199 -203 0
-180 -185 -199 -204 0
-180 -182 -200 -201 0
-180 -183 -200 -202 0
-180 -184 -200 -203 0
-180 -185 -200 -204 0
-181 -182 -200 -201 0
-181 -183 -200 -202 0
-181 -184 -200 -203 0
-181 -185 -200 -204 0
-187 -192 -197 -201 0
-187 -193 -197 -202 0
-187 -194 -197 -203 0
-187 -195 -197 -204 0
-187 -192 -198 -201 0
-187 -193 -198 -202 0
-187 -194 -198 -203 0
-187 -195 -198 -204 0
-188 -192 -197 -201 0
-188 -193 -197 -202 0
-188 -194 -197 -203 0
-188 -195 -197 -204 0
-188 -192 -198 -201 0
-188 -193 -198 -202 0
-188 -194 -198 -203 0
-188 -195 -198 -204 0
-188 -192 -199 -201 0
-188 -193 -199 -202 0
-188 -194 -199 -203 0
-188 -195 -199 -204 0
-189 -192 -197 -201 0
-189 -193 -197 -202 0
-189 -194 -197 -203 0
-189 -195 -197 -204 0
-189 -192 -198 -201 0
-189 -193 -198 -202 0
-189 -194 -198 -203 0
-189 -195 -198 -204 0
-189 -192 -199 -201 0
-189 -193 -199 -202 0
-189 -194 -199 -203 0
-189 -195 -199 -204 0
-189 -192 -200 -201 0
-189 -193 -200 -202 0
-189 -194 -200 -203 0
-189 -195 -200 -204 0
-190 -192 -198 -201 0
-190 -193 -198 -202 0
-190 -194 -198 -203 0
-190 -195 -198 -204 0
-190 -192 -199 -201 0
-190 -193 -199 -202 0
-190 -194 -199 -203 0
-190 -195 -199 -204 0
-190 -192 -200 -201 0
-190 -193 -200 -202 0
-190 -194 -200 -203 0
-190 -195 -200 -204 0
-191 -192 -199 -201 0
-191 -193 -199 -202 0
-191 -194 -199 -203 0
-191 -195 -199 -204 0
-191 -192 -200 -201 0
-191 -193 -200 -202 0
-191 -194 -200 -203 0
-191 -195 -200 -204 0
-206 -212 -217 -223 0
-206 -213 -217 -224 0
-206 -214 -217 -225 0
-206 -215 -217 -226 0
-207 -212 -218 -223 0
-207 -213 -218 -224 0
-207 -214 -218 -225 0
-207 -215 -218 -226 0
-208 -212 -219 -223 0
-208 -213 -219 -224 0
-208 -214 -219 -225 0
-208 -215 -219 -226 0
-209 -212 -220 -223 0
-209 -213 -220 -224 0
-209 -214 -220 -225 0
-209 -215 -220 -226 0
-210 -212 -221 -223 0
-210 -213 -221 -224 0
-210 -214 -221 -225 0
-210 -215 -221 -226 0
-211 -212 -222 -223 0
-211 -213 -222 -224 0
-211 -214 -222 -225 0
-211 -215 -222 -226 0
-206 -212 -228 -233 0
-206 -213 -228 -234 0
-206 -214 -228 -235 0
-206 -215 -228 -236 0
-207 -212 -228 -233 0
-207 -213 -228 -234 0
-207 -214 -228 -235 0
-207 -215 -228 -236 0
-207 -212 -229 -233 0
-207 -213 -229 -234 0
-207 -214 -229 -235 0
-207 -215 -229 -236 0
-208 -212 -229 -233 0
-208 -213 -229 -234 0
-208 -214 -229 -235 0
-208 -215 -229 -236 0
-208 -212 -230 -233 0
-208 -213 -230 -234 0
-208 -214 -230 -235 0
-208 -215 -230 -236 0
-209 -212 -230 -233 0
-209 -213 -230 -234 0
-209 -214 -230 -235 0
-209 -215 -230 -236 0
-209 -212 -231 -233 0
-209 -213 -231 -234 0
-209 -214 -231 -235 0
-209 -215 -231 -236 0
-210 -212 -231 -233 0
-210 -213 -231 -234 0
-210 -214 -231 -235 0
-210 -215 -231 -236 0
-210 -212 -232 -233 0
-210 -213 -232 -234 0
-210 -214 -232 -235 0
-210 -215 -232 -236 0
-211 -212 -232 -233 0
-211 -213 -232 -234 0
-211 -214 -232 -235 0
-211 -215 -232 -236 0
-206 -212 -238 -242 0
-206 -213 -238 -243 0
-206 -214 -238 -244 0
-206 -215 -238 -245 0
-207 -212 -238 -242 0
-207 -213 -238 -243 0
-207 -214 -238 -244 0
-207 -215 -238 -245 0
-207 -212 -239 -242 0
-207 -213 -239 -243 0
-207 -214 -239 -244 0
-207 -215 -239 -245 0
-208 -212 -238 -242 0
-208 -213 -238 -243 0
-208 -214 -238 -244 0
-208 -215 -238 -245 0
-208 -212 -239 -242 0
-208 -213 -239 -243 0
-208 -214 -239 -244 0
-208 -215 -239 -245 0
-208 -212 -240 -242 0
-208 -213 -240 -243 0
-208 -214 -240 -244 0
-208 -215 -240 -245 0
-209 -212 -239 -242 0
-209 -213 -239 -243 0
-209 -214 -239 -244 0
-209 -215 -239 -245 0
-209 -212 -240 -242 0
-209 -213 -240 -243 0
-209 -214 -240 -244 0
-209 -215 -240 -245 0
-209 -212 -241 -242 0
-209 -213 -241 -243 0
-209 -214 -241 -244 0
-209 -215 -241 -245 0
-210 -212 -240 -242 0
-210 -213 -240 -243 0
-210 -214 -240 -244 0
-210 -215 -240 -245 0
-210 -212 -241 -242 0
-210 -213 -241 -243 0
-210 -214 -241 -244 0
-210 -215 -241 -245 0
-211 -212 -241 -242 0
-211 -213 -241 -243 0
-211 -214 -241 -244 0
-211 -215 -241 -245 0
-217 -223 -228 -233 0
-217 -224 -228 -234 0
-217 -225 -228 -235 0
-217 -226 -228 -236 0
-218 -223 -228 -233 0
-218 -224 -228 -234 0
-218 -225 -228 -235 0
-218 -226 -228 -236 0
-218 -223 -229 -233 0
-218 -224 -229 -234 0
-218 -225 -229 -235 0
-218 -226 -229 -236 0
-219 -223 -229 -233 0
-219 -224 -229 -234 0
-219 -225 -229 -235 0
-219 -226 -229 -236 0
-219 -223 -230 -233 0
-219 -224 -230 -234 0
-219 -225 -230 -235 0
-219 -226 -230 -236 0
-220 -223 -230 -233 0
-220 -224 -230 -234 0
-220 -225 -230 -235 0
-220 -226 -230 -236 0
-220 -223 -231 -233 0
-220 -224 -231 -234 0
-220 -225 -231 -235 0
-220 -226 -231 -236 0
-221 -223 -231 -233 0
-221 -224 -231 -234 0
-221 -225 -231 -235 0
-221 -226 -231 -236 0
-221 -223 -232 -233 0
-221 -224 -232 -234 0
-221 -225 -232 -235 0
-221 -226 -232 -236 0
-222 -223 -232 -233 0
-222 -224 -232 -234 0
-222 -225 -232 -235 0
-222 -226 -232 -236 0
-217 -223 -238 -242 0
-217 -224 -238 -243 0
-217 -225 -238 -244 0
-217 -226 -238 -245 0
-218 -223 -238 -242 0
-218 -224 -238 -243 0
-218 -225 -238 -244 0
-218 -226 -238 -245 0
-218 -223 -239 -242 0
-218 -224 -239 -243 0
-218 -225 -239 -244 0
-218 -226 -239 -245 0
-219 -223 -238 -242 0
-219 -224 -238 -243 0
-219 -225 -238 -244 0
-219 -226 -238 -245 0
-219 -223 -239 -242 0
-219 -224 -239 -243 0
-219 -225 -239 -244 0
-219 -226 -239 -245 0
-219 -223 -240 -242 0
-219 -224 -240 -243 0
-219 -225 -240 -244 0
-219 -226 -240 -245 0
-220 -223 -239 -242 0
-220 -224 -239 -243 0
-220 -225 -239 -244 0
-220 -226 -239 -245 0
-220 -223 -240 -242 0
-220 -224 -240 -243 0
-220 -225 -240 -244 0
-220 -226 -240 -245 0
-220 -223 -241 -242 0
-220 -224 -241 -243 0
-220 -225 -241 -244 0
-220 -226 -241 -245 0
-221 -223 -240 -242 0
-221 -224 -240 -243 0
-221 -225 -240 -244 0
-221 -226 -240 -245 0
-221 -223 -241 -242 0
-221 -224 -241 -243 0
-221 -225 -241 -244 0
-221 -226 -241 -245 0
-222 -223 -241 -242 0
-222 -224 -241 -243 0
-222 -225 -241 -244 0
-222 -226 -241 -245 0
-228 -233 -238 -242 0
-228 -234 -238 -243 0
-228 -235 -238 -244 0
-228 -236 -238 -245 0
-228 -233 -239 -242 0
-228 -234 -239 -243 0
-228 -235 -239 -244 0
-228 -236 -239 -245 0
-229 -233 -238 -242 0
-229 -234 -238 -243 0
-229 -235 -238 -244 0
-229 -236 -238 -245 0
-229 -233 -239 -242 0
-229 -234 -239 -243 0
-229 -235 -239 -244 0
-229 -236 -239 -245 0
-229 -233 -240 -242 0
-229 -234 -240 -243 0
-229 -235 -240 -244 0
-229 -236 -240 -245 0
-230 -233 -238 -242 0
-230 -234 -238 -243 0
-230 -235 -238 -244 0
-230 -236 -238 -245 0
-230 -233 -239 -242 0
-230 -234 -239 -243 0
-230 -235 -239 -244 0
-230 -236 -239 -245 0
-230 -233 -240 -242 0
-230 -234 -240 -243 0
-230 -235 -240 -244 0
-230 -236 -240 -245 0
-230 -233 -241 -242 0
-230 -234 -241 -243 0
-230 -235 -241 -244 0
-230 -236 -241 -245 0
-231 -233 -239 -242 0
-231 -234 -239 -243 0
-231 -235 -239 -244 0
-231 -236 -239 -245 0
-231 -233 -240 -242 0
-231 -234 -240 -243 0
-231 -235 -240 -244 0
-231 -236 -240 -245 0
-231 -233 -241 -242 0
-231 -234 -241 -243 0
-231 -235 -241 -244 0
-231 -236 -241 -245 0
-232 -233 -240 -242 0
-232 -234 -240 -243 0
-232 -235 -240 -244 0
-232 -236 -240 -245 0
-232 -233 -241 -242 0
-232 -234 -241 -243 0
-232 -235 -241 -244 0
-232 -236 -241 -245 0
-247 -253 -258 -264 0
-247 -254 -258 -265 0
-247 -255 -258 -266 0
-247 -256 -258 -267 0
-248 -253 -259 -264 0
-248 -254 -259 -265 0
-248 -255 -259 -266 0
-248 -256 -259 -267 0
-249 -253 -260 -264 0
-249 -254 -260 -265 0
-249 -255 -260 -266 0
-249 -256 -260 -267 0
-250 -253 -261 -264 0
-250 -254 -261 -265 0
-250 -255 -261 -266 0
-250 -256 -261 -267 0
-251 -253 -262 -264 0
-251 -254 -262 -265 0
-251 -255 -262 -266 0
-251 -256 -262 -267 0
-252 -253 -263 -264 0
-252 -254 -263 -265 0
-252 -255 -263 -266 0
-252 -256 -263 -267 0
-247 -253 -269 -274 0
-247 -254 -269 -275 0
-247 -255 -269 -276 0
-247 -256 -269 -277 0
-248 -253 -269 -274 0
-248 -254 -269 -275 0
-248 -255 -269 -276 0
-248 -256 -269 -277 0
-248 -253 -270 -274 0
-248 -254 -270 -275 0
-248 -255 -270 -276 0
-248 -256 -270 -277 0
-249 -253 -270 -274 0
-249 -254 -270 -275 0
-249 -255 -270 -276 0
-249 -256 -270 -277 0
-249 -253 -271 -274 0
-249 -254 -271 -275 0
-249 -255 -271 -276 0
-249 -256 -271 -277 0
-250 -253 -271 -274 0
-250 -254 -271 -275 0
-250 -255 -271 -276 0
-250 -256 -271 -277 0
-250 -253 -272 -274 0
-250 -254 -272 -275 0
-250 -255 -272 -276 0
-250 -256 -272 -277 0
-251 -253 -272 -274 0
-251 -254 -272 -275 0
-251 -255 -272 -276 0
-251 -256 -272 -277 0
-251 -253 -273 -274 0
-251 -254 -273 -275 0
-251 -255 -273 -276 0
-251 -256 -273 -277 0
-252 -253 -273 -274 0
-252 -254 -273 -275 0
-252 -255 -273 -276 0
-252 -256 -273 -277 0
-247 -253 -279 -283 0
-247 -254 -279 -284 0
-247 -255 -279 -285 0
-247 -256 -279 -286 0
-248 -253 -279 -283 0
-248 -254 -279 -284 0
-248 -255 -279 -285 0
-248 -256 -279 -286 0
-248 -253 -280 -283 0
-248 -254 -280 -284 0
-248 -255 -280 -285 0
-248 -256 -280 -286 0
-249 -253 -279 -283 0
-249 -254 -279 -284 0
-249 -255 -279 -285 0
-249 -256 -279 -286 0
-249 -253 -280 -283 0
-249 -254 -280 -284 0
-249 -255 -280 -285 0
-249 -256 -280 -286 0
-249 -253 -281 -283 0
-249 -254 -281 -284 0
-249 -255 -281 -285 0
-249 -256 -281 -286 0
-250 -253 -280 -283 0
-250 -254 -280 -284 0
-250 -255 -280 -285 0
-250 -256 -280 -286 0
-250 -253 -281 -283 0
-250 -254 -281 -284 0
-250 -255 -281 -285 0
-250 -256 -281 -286 0
-250 -253 -282 -283 0
-250 -254 -282 -284 0
-250 -255 -282 -285 0
-250 -256 -282 -286 0
-251 -253 -281 -283 0
-251 -254 -281 -284 0
-251 -255 -281 -285 0
-251 -256 -281 -286 0
-251 -253 -282 -283 0
-251 -254 -282 -284 0
-251 -255 -282 -285 0
-251 -256 -282 -286 0
-252 -253 -282 -283 0
-252 -254 -282 -284 0
-252 -255 -282 -285 0
-252 -256 -282 -286 0
-258 -264 -269 -274 0
-258 -265 -269 -275 0
-258 -266 -269 -276 0
-258 -267 -269 -277 0
-259 -264 -269 -274 0
-259 -265 -269 -275 0
-259 -266 -269 -276 0
-259 -267 -269 -277 0
-259 -264 -270 -274 0
-259 -265 -270 -275 0
-259 -266 -270 -276 0
-259 -267 -270 -277 0
-260 -264 -270 -274 0
-260 -265 -270 -275 0
-260 -266 -270 -276 0
-260 -267 -270 -277 0
-260 -264 -271 -274 0
-260 -265 -271 -275 0
-260 -266 -271 -276 0
-260 -267 -271 -277 0
-261 -264 -271 -274 0
-261 -265 -271 -275 0
-261 -266 -271 -276 0
-261 -267 -271 -277 0
-261 -264 -272 -274 0
-261 -265 -272 -275 0
-261 -266 -272 -276 0
-261 -267 -272 -277 0
-262 -264 -272 -274 0
-262 -265 -272 -275 0
-262 -266 -272 -276 0
-262 -267 -272 -277 0
-262 -264 -273 -274 0
-262 -265 -273 -275 0
-262 -266 -273 -276 0
-262 -267 -273 -277 0
-263 -264 -273 -274 0
-263 -265 -273 -275 0
-263 -266 -273 -276 0
-263 -267 -273 -277 0
-258 -264 -279 -283 0
-258 -265 -279 -284 0
-258 -266 -279 -285 0
-258 -267 -279 -286 0
-259 -264 -279 -283 0
-259 -265 -279 -284 0
-259 -266 -279 -285 0
-259 -267 -279 -286 0
-259 -264 -280 -283 0
-259 -265 -280 -284 0
-259 -266 -280 -285 0
-259 -267 -280 -286 0
-260 -264 -279 -283 0
-260 -265 -279 -284 0
-260 -266 -279 -285 0
-260 -267 -279 -286 0
-260 -264 -280 -283 0
-260 -265 -280 -284 0
-260 -266 -280 -285 0
-260 -267 -280 -286 0
-260 -264 -281 -283 0
-260 -265 -281 -284 0
-260 -266 -281 -285 0
-260 -267 -281 -286 0
-261 -264 -280 -283 0
-261 -265 -280 -284 0
-261 -266 -280 -285 0
-261 -267 -280 -286 0
-261 -264 -281 -283 0
-261 -265 -281 -284 0
-261 -266 -281 -285 0
-261 -267 -281 -286 0
-261 -264 -282 -283 0
-261 -265 -282 -284 0
-261 -266 -282 -285 0
-261 -267 -282 -286 0
-262 -264 -281 -283 0
-262 -265 -281 -284 0
-262 -266 -281 -285 0
-262 -267 -281 -286 0
-262 -264 -282 -283 0
-262 -265 -282 -284 0
-262 -266 -282 -285 0
-262 -267 -282 -286 0
-263 -264 -282 -283 0
-263 -265 -282 -284 0
-263 -266 -282 -285 0
-263 -267 -282 -286 0
-269 -274 -279 -283 0
-269 -275 -279 -284 0
-269 -276 -279 -285 0
-269 -277 -279 -286 0
-269 -274 -280 -283 0
-269 -275 -280 -284 0
-269 -276 -280 -285 0
-269 -277 -280 -286 0
-270 -274 -279 -283 0
-270 -275 -279 -284 0
-270 -276 -279 -285 0
-270 -277 -279 -286 0
-270 -274 -280 -283 0
-270 -275 -280 -284 0
-270 -276 -280 -285 0
-270 -277 -280 -286 0
-270 -274 -281 -283 0
-270 -275 -281 -284 0
-270 -276 -281 -285 0
-270 -277 -281 -286 0
-271 -274 -279 -283 0
-271 -275 -279 -284 0
-271 -276 -279 -285 0
-271 -277 -279 -286 0
-271 -274 -280 -283 0
-271 -275 -280 -284 0
-271 -276 -280 -285 0
-271 -277 -280 -286 0
-271 -274 -281 -283 0
-271 -275 -281 -284 0
-271 -276 -281 -285 0
-271 -277 -281 -286 0
-271 -274 -282 -283 0
-271 -275 -282 -284 0
-271 -276 -282 -285 0
-271 -277 -282 -286 0
-272 -274 -280 -283 0
-272 -275 -280 -284 0
-272 -276 -280 -285 0
-272 -277 -280 -286 0
-272 -274 -281 -283 0
-272 -275 -281 -284 0
-272 -276 -281 -285 0
-272 -277 -281 -286 0
-272 -274 -282 -283 0
-272 -275 -282 -284 0
-272 -276 -282 -285 0
-272 -277 -282 -286 0
-273 -274 -281 -283 0
-273 -275 -281 -284 0
-273 -276 -281 -285 0
-273 -277 -281 -286 0
-273 -274 -282 -283 0
-273 -275 -282 -284 0
-273 -276 -282 -285 0
-273 -277 -282 -286 0
-1 -8 792 0
-1 -9 797 0
-1 -10 802 0
-2 -8 812 0
-2 -9 817 0
-2 -10 822 0
-3 -8 832 0
-3 -9 837 0
-3 -10 842 0
-4 -8 852 0
-4 -9 857 0
-4 -10 862 0
-5 -8 872 0
-5 -9 877 0
-5 -10 882 0
-6 -8 892 0
-6 -9 897 0
-6 -10 902 0
-12 -19 792 0
-12 -20 797 0
-12 -21 802 0
-13 -19 812 0
-13 -20 817 0
-13 -21 822 0
-14 -19 832 0
-14 -20 837 0
-14 -21 842 0
-15 -19 852 0
-15 -20 857 0
-15 -21 862 0
-16 -19 872 0
-16 -20 877 0
-16 -21 882 0
-17 -19 892 0
-17 -20 897 0
-17 -21 902 0
-23 -29 792 812 0
-23 -30 797 817 0
-23 -31 802 822 0
-24 -29 812 832 0
-24 -30 817 837 0
-24 -31 822 842 0
-25 -29 832 852 0
-25 -30 837 857 0
-25 -31 842 862 0
-26 -29 852 872 0
-26 -30 857 877 0
-26 -31 862 882 0
-27 -29 872 892 0
-27 -30 877 897 0
-27 -31 882 902 0
-33 -38 792 812 0
-33 -38 792 832 0
-33 -38 812 832 0
-33 -39 797 817 0
-33 -39 797 837 0
-33 -39 817 837 0
-33 -40 802 822 0
-33 -40 802 842 0
-33 -40 822 842 0
-34 -38 812 832 0
-34 -38 812 852 0
-34 -38 832 852 0
-34 -39 817 837 0
-34 -39 817 857 0
-34 -39 837 857 0
-34 -40 822 842 0
-34 -40 822 862 0
-34 -40 842 862 0
-35 -38 832 852 0
-35 -38 832 872 0
-35 -38 852 872 0
-35 -39 837 857 0
-35 -39 837 877 0
-35 -39 857 877 0
-35 -40 842 862 0
-35 -40 842 882 0
-35 -40 862 882 0
-36 -38 852 872 0
-36 -38 852 892 0
-36 -38 872 892 0
-36 -39 857 877 0
-36 -39 857 897 0
-36 -39 877 897 0
-36 -40 862 882 0
-36 -40 862 902 0
-36 -40 882 902 0
-42 -49 912 0
-42 -50 917 0
-42 -51 922 0
-43 -49 932 0
-43 -50 937 0
-43 -51 942 0
-44 -49 952 0
-44 -50 957 0
-44 -51 962 0
-45 -49 972 0
-45 -50 977 0
-45 -51 982 0
-46 -49 992 0
-46 -50 997 0
-46 -51 1002 0
-47 -49 1012 0
-47 -50 1017 0
-47 -51 1022 0
-53 -60 912 0
-53 -61 917 0
-53 -62 922 0
-54 -60 932 0
-54 -61 937 0
-54 -62 942 0
-55 -60 952 0
-55 -61 957 0
-55 -62 962 0
-56 -60 972 0
-56 -61 977 0
-56 -62 982 0
-57 -60 992 0
-57 -61 997 0
-57 -62 1002 0
-58 -60 1012 0
-58 -61 1017 0
-58 -62 1022 0
-64 -70 912 932 0
-64 -71 917 937 0
-64 -72 922 942 0
-65 -70 932 952 0
-65 -71 937 957 0
-65 -72 942 962 0
-66 -70 952 972 0
-66 -71 957 977 0
-66 -72 962 982 0
-67 -70 972 992 0
-67 -71 977 997 0
-67 -72 982 1002 0
-68 -70 992 1012 0
-68 -71 997 1017 0
-68 -72 1002 1022 0
-74 -79 912 932 0
-74 -79 912 952 0
-74 -79 932 952 0
-74 -80 917 937 0
-74 -80 917 957 0
-74 -80 937 957 0
-74 -81 922 942 0
-74 -81 922 962 0
-74 -81 942 962 0
-75 -79 932 952 0
-75 -79 932 972 0
-75 -79 952 972 0
-75 -80 937 957 0
-75 -80 937 977 0
-75 -80 957 977 0
-75 -81 942 962 0
-75 -81 942 982 0
-75 -81 962 982 0
-76 -79 952 972 0
-76 -79 952 992 0
-76 -79 972 992 0
-76 -80 957 977 0
-76 -80 957 997 0
-76 -80 977 997 0
-76 -81 962 982 0
-76 -81 962 1002 0
-76 -81 982 1002 0
-77 -79 972 992 0
-77 -79 972 1012 0
-77 -79 992 1012 0
-77 -80 977 997 0
-77 -80 977 1017 0
-77 -80 997 1017 0
-77 -81 982 1002 0
-77 -81 982 1022 0
-77 -81 1002 1022 0
-83 -90 1032 0
-83 -91 1037 0
-83 -92 1042 0
-84 -90 1052 0
-84 -91 1057 0
-84 -92 1062 0
-85 -90 1072 0
-85 -91 1077 0
-85 -92 1082 0
-86 -90 1092 0
-86 -91 1097 0
-86 -92 1102 0
-87 -90 1112 0
-87 -91 1117 0
-87 -92 1122 0
-88 -90 1132 0
-88 -91 1137 0
-88 -92 1142 0
-94 -101 1032 0
-94 -102 1037 0
-94 -103 1042 0
-95 -101 1052 0
-95 -102 1057 0
-95 -103 1062 0
-96 -101 1072 0
-96 -102 1077 0
-96 -103 1082 0
-97 -101 1092 0
-97 -102 1097 0
-97 -103 1102 0
-98 -101 1112 0
-98 -102 1117 0
-98 -103 1122 0
-99 -101 1132 0
-99 -102 1137 0
-99 -103 1142 0
-105 -111 1032 1052 0
-105 -112 1037 1057 0
-105 -113 1042 1062 0
-106 -111 1052 1072 0
-106 -112 1057 1077 0
-106 -113 1062 1082 0
-107 -111 1072 1092 0
-107 -112 1077 1097 0
-107 -113 1082 1102 0
-108 -111 1092 1112 0
-108 -112 1097 1117 0
-108 -113 1102 1122 0
-109 -111 1112 1132 0
-109 -112 1117 1137 0
-109 -113 1122 1142 0
-115 -120 1032 1052 0
-115 -120 1032 1072 0
-115 -120 1052 1072 0
-115 -121 1037 1057 0
-115 -121 1037 1077 0
-115 -121 1057 1077 0
-115 -122 1042 1062 0
-115 -122 1042 1082 0
-115 -122 1062 1082 0
-116 -120 1052 1072 0
-116 -120 1052 1092 0
-116 -120 1072 1092 0
-116 -121 1057 1077 0
-116 -121 1057 1097 0
-116 -121 1077 1097 0
-116 -122 1062 1082 0
-116 -122 1062 1102 0
-116 -122 1082 1102 0
-117 -120 1072 1092 0
-117 -120 1072 1112 0
-117 -120 1092 1112 0
-117 -121 1077 1097 0
-117 -121 1077 1117 0
-117 -121 1097 1117 0
-117 -122 1082 1102 0
-117 -122 1082 1122 0
-117 -122 1102 1122 0
-118 -120 1092 1112 0
-118 -120 1092 1132 0
-118 -120 1112 1132 0
-118 -121 1097 1117 0
-118 -121 1097 1137 0
-118 -121 1117 1137 0
-118 -122 1102 1122 0
-118 -122 1102 1142 0
-118 -122 1122 1142 0
-124 -131 1152 0
-124 -132 1157 0
-124 -133 1162 0
-125 -131 1172 0
-125 -132 1177 0
-125 -133 1182 0
-126 -131 1192 0
-126 -132 1197 0
-126 -133 1202 0
-127 -131 1212 0
-127 -132 1217 0
-127 -133 1222 0
-128 -131 1232 0
-128 -132 1237 0
-128 -133 1242 0
-129 -131 1252 0
-129 -132 1257 0
-129 -133 1262 0
-135 -142 1152 0
-135 -143 1157 0
-135 -144 1162 0
-136 -142 1172 0
-136 -143 1177 0
-136 -144 1182 0
-137 -142 1192 0
-137 -143 1197 0
-137 -144 1202 0
-138 -142 1212 0
-138 -143 1217 0
-138 -144 1222 0
-139 -142 1232 0
-139 -143 1237 0
-139 -144 1242 0
-140 -142 1252 0
-140 -143 1257 0
-140 -144 1262 0
-146 -152 1152 1172 0
-146 -153 1157 1177 0
-146 -154 1162 1182 0
-147 -152 1172 1192 0
-147 -153 1177 1197 0
-147 -154 1182 1202 0
-148 -152 1192 1212 0
-148 -153 1197 1217 0
-148 -154 1202 1222 0
-149 -152 1212 1232 0
-149 -153 1217 1237 0
-149 -154 1222 1242 0
-150 -152 1232 1252 0
-150 -153 1237 1257 0
-150 -154 1242 1262 0
-156 -161 1152 1172 0
-156 -161 1152 1192 0
-156 -161 1172 1192 0
-156 -162 1157 1177 0
-156 -162 1157 1197 0
-156 -162 1177 1197 0
-156 -163 1162 1182 0
-156 -163 1162 1202 0
-156 -163 1182 1202 0
-157 -161 1172 1192 0
-157 -161 1172 1212 0
-157 -161 1192 1212 0
-157 -162 1177 1197 0
-157 -162 1177 1217 0
-157 -162 1197 1217 0
-157 -163 1182 1202 0
-157 -163 1182 1222 0
-157 -163 1202 1222 0
-158 -161 1192 1212 0
-158 -161 1192 1232 0
-158 -161 1212 1232 0
-158 -162 1197 1217 0
-158 -162 1197 1237 0
-158 -162 1217 1237 0
-158 -163 1202 1222 0
-158 -163 1202 1242 0
-158 -163 1222 1242 0
-159 -161 1212 1232 0
-159 -161 1212 1252 0
-159 -161 1232 1252 0
-159 -162 1217 1237 0
-159 -162 1217 1257 0
-159 -162 1237 1257 0
-159 -163 1222 1242 0
-159 -163 1222 1262 0
-159 -163 1242 1262 0
-165 -172 1272 0
-165 -173 1277 0
-165 -174 1282 0
-166 -172 1292 0
-166 -173 1297 0
-166 -174 1302 0
-167 -172 1312 0
-167 -173 1317 0
-167 -174 1322 0
-168 -172 1332 0
-168 -173 1337 0
-168 -174 1342 0
-169 -172 1352 0
-169 -173 1357 0
-169 -174 1362 0
-170 -172 1372 0
-170 -173 1377 0
-170 -174 1382 0
-176 -183 1272 0
-176 -184 1277 0
-176 -185 1282 0
-177 -183 1292 0
-177 -184 1297 0
-177 -185 1302 0
-178 -183 1312 0
-178 -184 1317 0
-178 -185 1322 0
-179 -183 1332 0
-179 -184 1337 0
-179 -185 1342 0
-180 -183 1352 0
-180 -184 1357 0
-180 -185 1362 0
-181 -183 1372 0
-181 -184 1377 0
-181 -185 1382 0
-187 -193 1272 1292 0
-187 -194 1277 1297 0
-187 -195 1282 1302 0
-188 -193 1292 1312 0
-188 -194 1297 1317 0
-188 -195 1302 1322 0
-189 -193 1312 1332 0
-189 -194 1317 1337 0
-189 -195 1322 1342 0
-190 -193 1332 1352 0
-190 -194 1337 1357 0
-190 -195 1342 1362 0
-191 -193 1352 1372 0
-191 -194 1357 1377 0
-191 -195 1362 1382 0
-197 -202 1272 1292 0
-197 -202 1272 1312 0
-197 -202 1292 1312 0
-197 -203 1277 1297 0
-197 -203 1277 1317 0
-197 -203 1297 1317 0
-197 -204 1282 1302 0
-197 -204 1282 1322 0
-197 -204 1302 1322 0
-198 -202 1292 1312 0
-198 -202 1292 1332 0
-198 -202 1312 1332 0
-198 -203 1297 1317 0
-198 -203 1297 1337 0
-198 -203 1317 1337 0
-198 -204 1302 1322 0
-198 -204 1302 1342 0
-198 -204 1322 1342 0
-199 -202 1312 1332 0
-199 -202 1312 1352 0
-199 -202 1332 1352 0
-199 -203 1317 1337 0
-199 -203 1317 1357 0
-199 -203 1337 1357 0
-199 -204 1322 1342 0
-199 -204 1322 1362 0
-199 -204 1342 1362 0
-200 -202 1332 1352 0
-200 -202 1332 1372 0
-200 -202 1352 1372 0
-200 -203 1337 1357 0
-200 -203 1337 1377 0
-200 -203 1357 1377 0
-200 -204 1342 1362 0
-200 -204 1342 1382 0
-200 -204 1362 1382 0
-206 -213 1392 0
-206 -214 1397 0
-206 -215 1402 0
-207 -213 1412 0
-207 -214 1417 0
-207 -215 1422 0
-208 -213 1432 0
-208 -214 1437 0
-208 -215 1442 0
-209 -213 1452 0
-209 -214 1457 0
-209 -215 1462 0
-210 -213 1472 0
-210 -214 1477 0
-210 -215 1482 0
-211 -213 1492 0
-211 -214 1497 0
-211 -215 1502 0
-217 -224 1392 0
-217 -225 1397 0
-217 -226 1402 0
-218 -224 1412 0
-218 -225 1417 0
-218 -226 1422 0
-219 -224 1432 0
-219 -225 1437 0
-219 -226 1442 0
-220 -224 1452 0
-220 -225 1457 0
-220 -226 1462 0
-221 -224 1472 0
-221 -225 1477 0
-221 -226 1482 0
-222 -224 1492 0
-222 -225 1497 0
-222 -226 1502 0
-228 -234 1392 1412 0
-228 -235 1397 1417 0
-228 -236 1402 1422 0
-229 -234 1412 1432 0
-229 -235 1417 1437 0
-229 -236 1422 1442 0
-230 -234 1432 1452 0
-230 -235 1437 1457 0
-230 -236 1442 1462 0
-231 -234 1452 1472 0
-231 -235 1457 1477 0
-231 -236 1462 1482 0
-232 -234 1472 1492 0
-232 -235 1477 1497 0
-232 -236 1482 1502 0
-238 -243 1392 1412 0
-238 -243 1392 1432 0
-238 -243 1412 1432 0
-238 -244 1397 1417 0
-238 -244 1397 1437 0
-238 -244 1417 1437 0
-238 -245 1402 1422 0
-238 -245 1402 1442 0
-238 -245 1422 1442 0
-239 -243 1412 1432 0
-239 -243 1412 1452 0
-239 -243 1432 1452 0
-239 -244 1417 1437 0
-239 -244 1417 1457 0
-239 -244 1437 1457 0
-239 -245 1422 1442 0
-239 -245 1422 1462 0
-239 -245 1442 1462 0
-240 -243 1432 1452 0
-240 -243 1432 1472 0
-240 -243 1452 1472 0
-240 -244 1437 1457 0
-240 -244 1437 1477 0
-240 -244 1457 1477 0
-240 -245 1442 1462 0
-240 -245 1442 1482 0
-240 -245 1462 1482 0
-241 -243 1452 1472 0
-241 -243 1452 1492 0
-241 -243 1472 1492 0
-241 -244 1457 1477 0
-241 -244 1457 1497 0
-241 -244 1477 1497 0
-241 -245 1462 1482 0
-241 -245 1462 1502 0
-241 -245 1482 1502 0
-247 -254 1512 0
-247 -255 1517 0
-247 -256 1522 0
-248 -254 1532 0
-248 -255 1537 0
-248 -256 1542 0
-249 -254 1552 0
-249 -255 1557 0
-249 -256 1562 0
-250 -254 1572 0
-250 -255 1577 0
-250 -256 1582 0
-251 -254 1592 0
-251 -255 1597 0
-251 -256 1602 0
-252 -254 1612 0
-252 -255 1617 0
-252 -256 1622 0
-258 -265 1512 0
-258 -266 1517 0
-258 -267 1522 0
-259 -265 1532 0
-259 -266 1537 0
-259 -267 1542 0
-260 -265 1552 0
-260 -266 1557 0
-260 -267 1562 0
-261 -265 1572 0
-261 -266 1577 0
-261 -267 1582 0
-262 -265 1592 0
-262 -266 1597 0
-262 -267 1602 0
-263 -265 1612 0
-263 -266 1617 0
-263 -267 1622 0
-269 -275 1512 1532 0
-269 -276 1517 1537 0
-269 -277 1522 1542 0
-270 -275 1532 1552 0
-270 -276 1537 1557 0
-270 -277 1542 1562 0
-271 -275 1552 1572 0
-271 -276 1557 1577 0
-271 -277 1562 1582 0
-272 -275 1572 1592 0
-272 -276 1577 1597 0
-272 -277 1582 1602 0
-273 -275 1592 1612 0
-273 -276 1597 1617 0
-273 -277 1602 1622 0
-279 -284 1512 1532 0
-279 -284 1512 1552 0
-279 -284 1532 1552 0
-279 -285 1517 1537 0
-279 -285 1517 1557 0
-279 -285 1537 1557 0
-279 -286 1522 1542 0
-279 -286 1522 1562 0
-279 -286 1542 1562 0
-280 -284 1532 1552 0
-280 -284 1532 1572 0
-280 -284 1552 1572 0
-280 -285 1537 1557 0
-280 -285 1537 1577 0
-280 -285 1557 1577 0
-280 -286 1542 1562 0
-280 -286 1542 1582 0
-280 -286 1562 1582 0
-281 -284 1552 1572 0
-281 -284 1552 1592 0
-281 -284 1572 1592 0
-281 -285 1557 1577 0
-281 -285 1557 1597 0
-281 -285 1577 1597 0
-281 -286 1562 1582 0
-281 -286 1562 1602 0
-281 -286 1582 1602 0
-282 -284 1572 1592 0
-282 -284 1572 1612 0
-282 -284 1592 1612 0
-282 -285 1577 1597 0
-282 -285 1577 1617 0
-282 -285 1597 1617 0
-282 -286 1582 1602 0
-282 -286 1582 1622 0
-282 -286 1602 1622 0
-1 -7 -797 -11 0
-1 -7 11 797 0
-1 -8 -802 -11 0
-1 -8 11 802 0
-1 -9 -807 -11 0
-1 -9 11 807 0
-1 -10 11 0
-2 -7 -817 -11 0
-2 -7 11 817 0
-2 -8 -822 -11 0
-2 -8 11 822 0
-2 -9 -827 -11 0
-2 -9 11 827 0
-2 -10 11 0
-3 -7 -837 -11 0
-3 -7 11 837 0
-3 -8 -842 -11 0
-3 -8 11 842 0
-3 -9 -847 -11 0
-3 -9 11 847 0
-3 -10 11 0
-4 -7 -857 -11 0
-4 -7 11 857 0
-4 -8 -862 -11 0
-4 -8 11 862 0
-4 -9 -867 -11 0
-4 -9 11 867 0
-4 -10 11 0
-5 -7 -877 -11 0
-5 -7 11 877 0
-5 -8 -882 -11 0
-5 -8 11 882 0
-5 -9 -887 -11 0
-5 -9 11 887 0
-5 -10 11 0
-6 -7 -897 -11 0
-6 -7 11 897 0
-6 -8 -902 -11 0
-6 -8 11 902 0
-6 -9 -907 -11 0
-6 -9 11 907 0
-6 -10 11 0
-12 -18 -797 -22 0
-12 -18 22 797 0
-12 -19 -802 -22 0
-12 -19 22 802 0
-12 -20 -807 -22 0
-12 -20 22 807 0
-12 -21 22 0
-13 -18 -817 -22 0
-13 -18 22 817 0
-13 -19 -822 -22 0
-13 -19 22 822 0
-13 -20 -827 -22 0
-13 -20 22 827 0
-13 -21 22 0
-14 -18 -837 -22 0
-14 -18 22 837 0
-14 -19 -842 -22 0
-14 -19 22 842 0
-14 -20 -847 -22 0
-14 -20 22 847 0
-14 -21 22 0
-15 -18 -857 -22 0
-15 -18 22 857 0
-15 -19 -862 -22 0
-15 -19 22 862 0
-15 -20 -867 -22 0
-15 -20 22 867 0
-15 -21 22 0
-16 -18 -877 -22 0
-16 -18 22 877 0
-16 -19 -882 -22 0
-16 -19 22 882 0
-16 -20 -887 -22 0
-16 -20 22 887 0
-16 -21 22 0
-17 -18 -897 -22 0
-17 -18 22 897 0
-17 -19 -902 -22 0
-17 -19 22 902 0
-17 -20 -907 -22 0
-17 -20 22 907 0
-17 -21 22 0
-23 -28 -797 -32 0
-23 -28 -817 -32 0
-23 -28 32 797 817 0
-23 -29 -802 -32 0
-23 -29 -822 -32 0
-23 -29 32 802 822 0
-23 -30 -807 -32 0
-23 -30 -827 -32 0
-23 -30 32 807 827 0
-23 -31 32 0
-24 -28 -817 -32 0
-24 -28 -837 -32 0
-24 -28 32 817 837 0
-24 -29 -822 -32 0
-24 -29 -842 -32 0
-24 -29 32 822 842 0
-24 -30 -827 -32 0
-24 -30 -847 -32 0
-24 -30 32 827 847 0
-24 -31 32 0
-25 -28 -837 -32 0
-25 -28 -857 -32 0
-25 -28 32 837 857 0
-25 -29 -842 -32 0
-25 -29 -862 -32 0
-25 -29 32 842 862 0
-25 -30 -847 -32 0
-25 -30 -867 -32 0
-25 -30 32 847 867 0
-25 -31 32 0
-26 -28 -857 -32 0
-26 -28 -877 -32 0
-26 -28 32 857 877 0
-26 -29 -862 -32 0
-26 -29 -882 -32 0
-26 -29 32 862 882 0
-26 -30 -867 -32 0
-26 -30 -887 -32 0
-26 -30 32 867 887 0
-26 -31 32 0
-27 -28 -877 -32 0
-27 -28 -897 -32 0
-27 -28 32 877 897 0
-27 -29 -882 -32 0
-27 -29 -902 -32 0
-27 -29 32 882 902 0
-27 -30 -887 -32 0
-27 -30 -907 -32 0
-27 -30 32 887 907 0
-27 -31 32 0
-33 -37 -797 -41 0
-33 -37 -817 -41 0
-33 -37 -837 -41 0
-33 -37 41 797 817 837 0
-33 -38 -802 -41 0
-33 -38 -822 -41 0
-33 -38 -842 -41 0
-33 -38 41 802 822 842 0
-33 -39 -807 -41 0
-33 -39 -827 -41 0
-33 -39 -847 -41 0
-33 -39 41 807 827 847 0
-33 -40 41 0
-34 -37 -817 -41 0
-34 -37 -837 -41 0
-34 -37 -857 -41 0
-34 -37 41 817 837 857 0
-34 -38 -822 -41 0
-34 -38 -842 -41 0
-34 -38 -862 -41 0
-34 -38 41 822 842 862 0
-34 -39 -827 -41 0
-34 -39 -847 -41 0
-34 -39 -867 -41 0
-34 -39 41 827 847 867 0
-34 -40 41 0
-35 -37 -837 -41 0
-35 -37 -857 -41 0
-35 -37 -877 -41 0
-35 -37 41 837 857 877 0
-35 -38 -842 -41 0
-35 -38 -862 -41 0
-35 -38 -882 -41 0
-35 -38 41 842 862 882 0
-35 -39 -847 -41 0
-35 -39 -867 -41 0
-35 -39 -887 -41 0
-35 -39 41 847 867 887 0
-35 -40 41 0
-36 -37 -857 -41 0
-36 -37 -877 -41 0
-36 -37 -897 -41 0
-36 -37 41 857 877 897 0
-36 -38 -862 -41 0
-36 -38 -882 -41 0
-36 -38 -902 -41 0
-36 -38 41 862 882 902 0
-36 -39 -867 -41 0
-36 -39 -887 -41 0
-36 -39 -907 -41 0
-36 -39 41 867 887 907 0
-36 -40 41 0
-42 -48 -917 -52 0
-42 -48 52 917 0
-42 -49 -922 -52 0
-42 -49 52 922 0
-42 -50 -927 -52 0
-42 -50 52 927 0
-42 -51 52 0
-43 -48 -937 -52 0
-43 -48 52 937 0
-43 -49 -942 -52 0
-43 -49 52 942 0
-43 -50 -947 -52 0
-43 -50 52 947 0
-43 -51 52 0
-44 -48 -957 -52 0
-44 -48 52 957 0
-44 -49 -962 -52 0
-44 -49 52 962 0
-44 -50 -967 -52 0
-44 -50 52 967 0
-44 -51 52 0
-45 -48 -977 -52 0
-45 -48 52 977 0
-45 -49 -982 -52 0
-45 -49 52 982 0
-45 -50 -987 -52 0
-45 -50 52 987 0
-45 -51 52 0
-46 -48 -997 -52 0
-46 -48 52 997 0
-46 -49 -1002 -52 0
-46 -49 52 1002 0
-46 -50 -1007 -52 0
-46 -50 52 1007 0
-46 -51 52 0
-47 -48 -1017 -52 0
-47 -48 52 1017 0
-47 -49 -1022 -52 0
-47 -49 52 1022 0
-47 -50 -1027 -52 0
-47 -50 52 1027 0
-47 -51 52 0
-53 -59 -917 -63 0
-53 -59 63 917 0
-53 -60 -922 -63 0
-53 -60 63 922 0
-53 -61 -927 -63 0
-53 -61 63 927 0
-53 -62 63 0
-54 -59 -937 -63 0
-54 -59 63 937 0
-54 -60 -942 -63 0
-54 -60 63 942 0
-54 -61 -947 -63 0
-54 -61 63 947 0
-54 -62 63 0
-55 -59 -957 -63 0
-55 -59 63 957 0
-55 -60 -962 -63 0
-55 -60 63 962 0
-55 -61 -967 -63 0
-55 -61 63 967 0
-55 -62 63 0
-56 -59 -977 -63 0
-56 -59 63 977 0
-56 -60 -982 -63 0
-56 -60 63 982 0
-56 -61 -987 -63 0
-56 -61 63 987 0
-56 -62 63 0
-57 -59 -997 -63 0
-57 -59 63 997 0
-57 -60 -1002 -63 0
-57 -60 63 1002 0
-57 -61 -1007 -63 0
-57 -61 63 1007 0
-57 -62 63 0
-58 -59 -1017 -63 0
-58 -59 63 1017 0
-58 -60 -1022 -63 0
-58 -60 63 1022 0
-58 -61 -1027 -63 0
-58 -61 63 1027 0
-58 -62 63 0
-64 -69 -917 -73 0
-64 -69 -937 -73 0
-64 -69 73 917 937 0
-64 -70 -922 -73 0
-64 -70 -942 -73 0
-64 -70 73 922 942 0
-64 -71 -927 -73 0
-64 -71 -947 -73 0
-64 -71 73 927 947 0
-64 -72 73 0
-65 -69 -937 -73 0
-65 -69 -957 -73 0
-65 -69 73 937 957 0
-65 -70 -942 -73 0
-65 -70 -962 -73 0
-65 -70 73 942 962 0
-65 -71 -947 -73 0
-65 -71 -967 -73 0
-65 -71 73 947 967 0
-65 -72 73 0
-66 -69 -957 -73 0
-66 -69 -977 -73 0
-66 -69 73 957 977 0
-66 -70 -962 -73 0
-66 -70 -982 -73 0
-66 -70 73 962 982 0
-66 -71 -967 -73 0
-66 -71 -987 -73 0
-66 -71 73 967 987 0
-66 -72 73 0
-67 -69 -977 -73 0
-67 -69 -997 -73 0
-67 -69 73 977 997 0
-67 -70 -982 -73 0
-67 -70 -1002 -73 0
-67 -70 73 982 1002 0
-67 -71 -987 -73 0
-67 -71 -1007 -73 0
-67 -71 73 987 1007 0
-67 -72 73 0
-68 -69 -997 -73 0
-68 -69 -1017 -73 0
-68 -69 73 997 1017 0
-68 -70 -1002 -73 0
-68 -70 -1022 -73 0
-68 -70 73 1002 1022 0
-68 -71 -1007 -73 0
-68 -71 -1027 -73 0
-68 -71 73 1007 1027 0
-68 -72 73 0
-74 -78 -917 -82 0
-74 -78 -937 -82 0
-74 -78 -957 -82 0
-74 -78 82 917 937 957 0
-74 -79 -922 -82 0
-74 -79 -942 -82 0
-74 -79 -962 -82 0
-74 -79 82 922 942 962 0
-74 -80 -927 -82 0
-74 -80 -947 -82 0
-74 -80 -967 -82 0
-74 -80 82 927 947 967 0
-74 -81 82 0
-75 -78 -937 -82 0
-75 -78 -957 -82 0
-75 -78 -977 -82 0
-75 -78 82 937 957 977 0
-75 -79 -942 -82 0
-75 -79 -962 -82 0
-75 -79 -982 -82 0
-75 -79 82 942 962 982 0
-75 -80 -947 -82 0
-75 -80 -967 -82 0
-75 -80 -987 -82 0
-75 -80 82 947 967 987 0
-75 -81 82 0
-76 -78 -957 -82 0
-76 -78 -977 -82 0
-76 -78 -997 -82 0
-76 -78 82 957 977 997 0
-76 -79 -962 -82 0
-76 -79 -982 -82 0
-76 -79 -1002 -82 0
-76 -79 82 962 982 1002 0
-76 -80 -967 -82 0
-76 -80 -987 -82 0
-76 -80 -1007 -82 0
-76 -80 82 967 987 1007 0
-76 -81 82 0
-77 -78 -977 -82 0
-77 -78 -997 -82 0
-77 -78 -1017 -82 0
-77 -78 82 977 997 1017 0
-77 -79 -982 -82 0
-77 -79 -1002 -82 0
-77 -79 -1022 -82 0
-77 -79 82 982 1002 1022 0
-77 -80 -987 -82 0
-77 -80 -1007 -82 0
-77 -80 -1027 -82 0
-77 -80 82 987 1007 1027 0
-77 -81 82 0
-83 -89 -1037 -93 0
-83 -89 93 1037 0
-83 -90 -1042 -93 0
-83 -90 93 1042 0
-83 -91 -1047 -93 0
-83 -91 93 1047 0
-83 -92 93 0
-84 -89 -1057 -93 0
-84 -89 93 1057 0
-84 -90 -1062 -93 0
-84 -90 93 1062 0
-84 -91 -1067 -93 0
-84 -91 93 1067 0
-84 -92 93 0
-85 -89 -1077 -93 0
-85 -89 93 1077 0
-85 -90 -1082 -93 0
-85 -90 93 1082 0
-85 -91 -1087 -93 0
-85 -91 93 1087 0
-85 -92 93 0
-86 -89 -1097 -93 0
-86 -89 93 1097 0
-86 -90 -1102 -93 0
-86 -90 93 1102 0
-86 -91 -1107 -93 0
-86 -91 93 1107 0
-86 -92 93 0
-87 -89 -1117 -93 0
-87 -89 93 1117 0
-87 -90 -1122 -93 0
-87 -90 93 1122 0
-87 -91 -1127 -93 0
-87 -91 93 1127 0
-87 -92 93 0
-88 -89 -1137 -93 0
-88 -89 93 1137 0
-88 -90 -1142 -93 0
-88 -90 93 1142 0
-88 -91 -1147 -93 0
-88 -91 93 1147 0
-88 -92 93 0
-94 -100 -1037 -104 0
-94 -100 104 1037 0
-94 -101 -1042 -104 0
-94 -101 104 1042 0
-94 -102 -1047 -104 0
-94 -102 104 1047 0
-94 -103 104 0
-95 -100 -1057 -104 0
-95 -100 104 1057 0
-95 -101 -1062 -104 0
-95 -101 104 1062 0
-95 -102 -1067 -104 0
-95 -102 104 1067 0
-95 -103 104 0
-96 -100 -1077 -104 0
-96 -100 104 1077 0
-96 -101 -1082 -104 0
-96 -101 104 1082 0
-96 -102 -1087 -104 0
-96 -102 104 1087 0
-96 -103 104 0
-97 -100 -1097 -104 0
-97 -100 104 1097 0
-97 -101 -1102 -104 0
-97 -101 104 1102 0
-97 -102 -1107 -104 0
-97 -102 104 1107 0
-97 -103 104 0
-98 -100 -1117 -104 0
-98 -100 104 1117 0
-98 -101 -1122 -104 0
-98 -101 104 1122 0
-98 -102 -1127 -104 0
-98 -102 104 1127 0
-98 -103 104 0
-99 -100 -1137 -104 0
-99 -100 104 1137 0
-99 -101 -1142 -104 0
-99 -101 104 1142 0
-99 -102 -1147 -104 0
-99 -102 104 1147 0
-99 -103 104 0
-105 -110 -1037 -114 0
-105 -110 -1057 -114 0
-105 -110 114 1037 1057 0
-105 -111 -1042 -114 0
-105 -111 -1062 -114 0
-105 -111 114 1042 1062 0
-105 -112 -1047 -114 0
-105 -112 -1067 -114 0
-105 -112 114 1047 1067 0
-105 -113 114 0
-106 -110 -1057 -114 0
-106 -110 -1077 -114 0
-106 -110 114 1057 1077 0
-106 -111 -1062 -114 0
-106 -111 -1082 -114 0
-106 -111 114 1062 1082 0
-106 -112 -1067 -114 0
-106 -112 -1087 -114 0
-106 -112 114 1067 1087 0
-106 -113 114 0
-107 -110 -1077 -114 0
-107 -110 -1097 -114 0
-107 -110 114 1077 1097 0
-107 -111 -1082 -114 0
-107 -111 -1102 -114 0
-107 -111 114 1082 1102 0
-107 -112 -1087 -114 0
-107 -112 -1107 -114 0
-107 -112 114 1087 1107 0
-107 -113 114 0
-108 -110 -1097 -114 0
-108 -110 -1117 -114 0
-108 -110 114 1097 1117 0
-108 -111 -1102 -114 0
-108 -111 -1122 -114 0
-108 -111 114 1102 1122 0
-108 -112 -1107 -114 0
-108 -112 -1127 -114 0
-108 -112 114 1107 1127 0
-108 -113 114 0
-109 -110 -1117 -114 0
-109 -110 -1137 -114 0
-109 -110 114 1117 1137 0
-109 -111 -1122 -114 0
-109 -111 -1142 -114 0
-109 -111 114 1122 1142 0
-109 -112 -1127 -114 0
-109 -112 -1147 -114 0
-109 -112 114 1127 1147 0
-109 -113 114 0
-115 -119 -1037 -123 0
-115 -119 -1057 -123 0
-115 -119 -1077 -123 0
-115 -119 123 1037 1057 1077 0
-115 -120 -1042 -123 0
-115 -120 -1062 -123 0
-115 -120 -1082 -123 0
-115 -120 123 1042 1062 1082 0
-115 -121 -1047 -123 0
-115 -121 -1067 -123 0
-115 -121 -1087 -123 0
-115 -121 123 1047 1067 1087 0
-115 -122 123 0
-116 -119 -1057 -123 0
-116 -119 -1077 -123 0
-116 -119 -1097 -123 0
-116 -119 123 1057 1077 1097 0
-116 -120 -1062 -123 0
-116 -120 -1082 -123 0
-116 -120 -1102 -123 0
-116 -120 123 1062 1082 1102 0
-116 -121 -1067 -123 0
-116 -121 -1087 -123 0
-116 -121 -1107 -123 0
-116 -121 123 1067 1087 1107 0
-116 -122 123 0
-117 -119 -1077 -123 0
-117 -119 -1097 -123 0
-117 -119 -1117 -123 0
-117 -119 123 1077 1097 1117 0
-117 -120 -1082 -123 0
-117 -120 -1102 -123 0
-117 -120 -1122 -123 0
-117 -120 123 1082 1102 1122 0
-117 -121 -1087 -123 0
-117 -121 -1107 -123 0
-117 -121 -1127 -123 0
-117 -121 123 1087 1107 1127 0
-117 -122 123 0
-118 -119 -1097 -123 0
-118 -119 -1117 -123 0
-118 -119 -1137 -123 0
-118 -119 123 1097 1117 1137 0
-118 -120 -1102 -123 0
-118 -120 -1122 -123 0
-118 -120 -1142 -123 0
-118 -120 123 1102 1122 1142 0
-118 -121 -1107 -123 0
-118 -121 -1127 -123 0
-118 -121 -1147 -123 0
-118 -121 123 1107 1127 1147 0
-118 -122 123 0
-124 -130 -1157 -134 0
-124 -130 134 1157 0
-124 -131 -1162 -134 0
-124 -131 134 1162 0
-124 -132 -1167 -134 0
-124 -132 134 1167 0
-124 -133 134 0
-125 -130 -1177 -134 0
-125 -130 134 1177 0
-125 -131 -1182 -134 0
-125 -131 134 1182 0
-125 -132 -1187 -134 0
-125 -132 134 1187 0
-125 -133 134 0
-126 -130 -1197 -134 0
-126 -130 134 1197 0
-126 -131 -1202 -134 0
-126 -131 134 1202 0
-126 -132 -1207 -134 0
-126 -132 134 1207 0
-126 -133 134 0
-127 -130 -1217 -134 0
-127 -130 134 1217 0
-127 -131 -1222 -134 0
-127 -131 134 1222 0
-127 -132 -1227 -134 0
-127 -132 134 1227 0
-127 -133 134 0
-128 -130 -1237 -134 0
-128 -130 134 1237 0
-128 -131 -1242 -134 0
-128 -131 134 1242 0
-128 -132 -1247 -134 0
-128 -132 134 1247 0
-128 -133 134 0
-129 -130 -1257 -134 0
-129 -130 134 1257 0
-129 -131 -1262 -134 0
-129 -131 134 1262 0
-129 -132 -1267 -134 0
-129 -132 134 1267 0
-129 -133 134 0
-135 -141 -1157 -145 0
-135 -141 145 1157 0
-135 -142 -1162 -145 0
-135 -142 145 1162 0
-135 -143 -1167 -145 0
-135 -143 145 1167 0
-135 -144 145 0
-136 -141 -1177 -145 0
-136 -141 145 1177 0
-136 -142 -1182 -145 0
-136 -142 145 1182 0
-136 -143 -1187 -145 0
-136 -143 145 1187 0
-136 -144 145 0
-137 -141 -1197 -145 0
-137 -141 145 1197 0
-137 -142 -1202 -145 0
-137 -142 145 1202 0
-137 -143 -1207 -145 0
-137 -143 145 1207 0
-137 -144 145 0
-138 -141 -1217 -145 0
-138 -141 145 1217 0
-138 -142 -1222 -145 0
-138 -142 145 1222 0
-138 -143 -1227 -145 0
-138 -143 145 1227 0
-138 -144 145 0
-139 -141 -1237 -145 0
-139 -141 145 1237 0
-139 -142 -1242 -145 0
-139 -142 145 1242 0
-139 -143 -1247 -145 0
-139 -143 145 1247 0
-139 -144 145 0
-140 -141 -1257 -145 0
-140 -141 145 1257 0
-140 -142 -1262 -145 0
-140 -142 145 1262 0
-140 -143 -1267 -145 0
-140 -143 145 1267 0
-140 -144 145 0
-146 -151 -1157 -155 0
-146 -151 -1177 -155 0
-146 -151 155 1157 1177 0
-146 -152 -1162 -155 0
-146 -152 -1182 -155 0
-146 -152 155 1162 1182 0
-146 -153 -1167 -155 0
-146 -153 -1187 -155 0
-146 -153 155 1167 1187 0
-146 -154 155 0
-147 -151 -1177 -155 0
-147 -151 -1197 -155 0
-147 -151 155 1177 1197 0
-147 -152 -1182 -155 0
-147 -152 -1202 -155 0
-147 -152 155 1182 1202 0
-147 -153 -1187 -155 0
-147 -153 -1207 -155 0
-147 -153 155 1187 1207 0
-147 -154 155 0
-148 -151 -1197 -155 0
-148 -151 -1217 -155 0
-148 -151 155 1197 1217 0
-148 -152 -1202 -155 0
-148 -152 -1222 -155 0
-148 -152 155 1202 1222 0
-148 -153 -1207 -155 0
-148 -153 -1227 -155 0
-148 -153 155 1207 1227 0
-148 -154 155 0
-149 -151 -1217 -155 0
-149 -151 -1237 -155 0
-149 -151 155 1217 1237 0
-149 -152 -1222 -155 0
-149 -152 -1242 -155 0
-149 -152 155 1222 1242 0
-149 -153 -1227 -155 0
-149 -153 -1247 -155 0
-149 -153 155 1227 1247 0
-149 -154 155 0
-150 -151 -1237 -155 0
-150 -151 -1257 -155 0
-150 -151 155 1237 1257 0
-150 -152 -1242 -155 0
-150 -152 -1262 -155 0
-150 -152 155 1242 1262 0
-150 -153 -1247 -155 0
-150 -153 -1267 -155 0
-150 -153 155 1247 1267 0
-150 -154 155 0
-156 -160 -1157 -164 0
-156 -160 -1177 -164 0
-156 -160 -1197 -164 0
-156 -160 164 1157 1177 1197 0
-156 -161 -1162 -164 0
-156 -161 -1182 -164 0
-156 -161 -1202 -164 0
-156 -161 164 1162 1182 1202 0
-156 -162 -1167 -164 0
-156 -162 -1187 -164 0
-156 -162 -1207 -164 0
-156 -162 164 1167 1187 1207 0
-156 -163 164 0
-157 -160 -1177 -164 0
-157 -160 -1197 -164 0
-157 -160 -1217 -164 0
-157 -160 164 1177 1197 1217 0
-157 -161 -1182 -164 0
-157 -161 -1202 -164 0
-157 -161 -1222 -164 0
-157 -161 164 1182 1202 1222 0
-157 -162 -1187 -164 0
-157 -162 -1207 -164 0
-157 -162 -1227 -164 0
-157 -162 164 1187 1207 1227 0
-157 -163 164 0
-158 -160 -1197 -164 0
-158 -160 -1217 -164 0
-158 -160 -1237 -164 0
-158 -160 164 1197 1217 1237 0
-158 -161 -1202 -164 0
-158 -161 -1222 -164 0
-158 -161 -1242 -164 0
-158 -161 164 1202 1222 1242 0
-158 -162 -1207 -164 0
-158 -162 -1227 -164 0
-158 -162 -1247 -164 0
-158 -162 164 1207 1227 1247 0
-158 -163 164 0
-159 -160 -1217 -164 0
-159 -160 -1237 -164 0
-159 -160 -1257 -164 0
-159 -160 164 1217 1237 1257 0
-159 -161 -1222 -164 0
-159 -161 -1242 -164 0
-159 -161 -1262 -164 0
-159 -161 164 1222 1242 1262 0
-159 -162 -1227 -164 0
-159 -162 -1247 -164 0
-159 -162 -1267 -164 0
-159 -162 164 1227 1247 1267 0
-159 -163 164 0
-165 -171 -1277 -175 0
-165 -171 175 1277 0
-165 -172 -1282 -175 0
-165 -172 175 1282 0
-165 -173 -1287 -175 0
-165 -173 175 1287 0
-165 -174 175 0
-166 -171 -1297 -175 0
-166 -171 175 1297 0
-166 -172 -1302 -175 0
-166 -172 175 1302 0
-166 -173 -1307 -175 0
-166 -173 175 1307 0
-166 -174 175 0
-167 -171 -1317 -175 0
-167 -171 175 1317 0
-167 -172 -1322 -175 0
-167 -172 175 1322 0
-167 -173 -1327 -175 0
-167 -173 175 1327 0
-167 -174 175 0
-168 -171 -1337 -175 0
-168 -171 175 1337 0
-168 -172 -1342 -175 0
-168 -172 175 1342 0
-168 -173 -1347 -175 0
-168 -173 175 1347 0
-168 -174 175 0
-169 -171 -1357 -175 0
-169 -171 175 1357 0
-169 -172 -1362 -175 0
-169 -172 175 1362 0
-169 -173 -1367 -175 0
-169 -173 175 1367 0
-169 -174 175 0
-170 -171 -1377 -175 0
-170 -171 175 1377 0
-170 -172 -1382 -175 0
-170 -172 175 1382 0
-170 -173 -1387 -175 0
-170 -173 175 1387 0
-170 -174 175 0
-176 -182 -1277 -186 0
-176 -182 186 1277 0
-176 -183 -1282 -186 0
-176 -183 186 1282 0
-176 -184 -1287 -186 0
-176 -184 186 1287 0
-176 -185 186 0
-177 -182 -1297 -186 0
-177 -182 186 1297 0
-177 -183 -1302 -186 0
-177 -183 186 1302 0
-177 -184 -1307 -186 0
-177 -184 186 1307 0
-177 -185 186 0
-178 -182 -1317 -186 0
-178 -182 186 1317 0
-178 -183 -1322 -186 0
-178 -183 186 1322 0
-178 -184 -1327 -186 0
-178 -184 186 1327 0
-178 -185 186 0
-179 -182 -1337 -186 0
-179 -182 186 1337 0
-179 -183 -1342 -186 0
-179 -183 186 1342 0
-179 -184 -1347 -186 0
-179 -184 186 1347 0
-179 -185 186 0
-180 -182 -1357 -186 0
-180 -182 186 1357 0
-180 -183 -1362 -186 0
-180 -183 186 1362 0
-180 -184 -1367 -186 0
-180 -184 186 1367 0
-180 -185 186 0
-181 -182 -1377 -186 0
-181 -182 186 1377 0
-181 -183 -1382 -186 0
-181 -183 186 1382 0
-181 -184 -1387 -186 0
-181 -184 186 1387 0
-181 -185 186 0
-187 -192 -1277 -196 0
-187 -192 -1297 -196 0
-187 -192 196 1277 1297 0
-187 -193 -1282 -196 0
-187 -193 -1302 -196 0
-187 -193 196 1282 1302 0
-187 -194 -1287 -196 0
-187 -194 -1307 -196 0
-187 -194 196 1287 1307 0
-187 -195 196 0
-188 -192 -1297 -196 0
-188 -192 -1317 -196 0
-188 -192 196 1297 1317 0
-188 -193 -1302 -196 0
-188 -193 -1322 -196 0
-188 -193 196 1302 1322 0
-188 -194 -1307 -196 0
-188 -194 -1327 -196 0
-188 -194 196 1307 1327 0
-188 -195 196 0
-189 -192 -1317 -196 0
-189 -192 -1337 -196 0
-189 -192 196 1317 1337 0
-189 -193 -1322 -196 0
-189 -193 -1342 -196 0
-189 -193 196 1322 1342 0
-189 -194 -1327 -196 0
-189 -194 -1347 -196 0
-189 -194 196 1327 1347 0
-189 -195 196 0
-190 -192 -1337 -196 0
-190 -192 -1357 -196 0
-190 -192 196 1337 1357 0
-190 -193 -1342 -196 0
-190 -193 -1362 -196 0
-190 -193 196 1342 1362 0
-190 -194 -1347 -196 0
-190 -194 -1367 -196 0
-190 -194 196 1347 1367 0
-190 -195 196 0
-191 -192 -1357 -196 0
-191 -192 -1377 -196 0
-191 -192 196 1357 1377 0
-191 -193 -1362 -196 0
-191 -193 -1382 -196 0
-191 -193 196 1362 1382 0
-191 -194 -1367 -196 0
-191 -194 -1387 -196 0
-191 -194 196 1367 1387 0
-191 -195 196 0
-197 -201 -1277 -205 0
-197 -201 -1297 -205 0
-197 -201 -1317 -205 0
-197 -201 205 1277 1297 1317 0
-197 -202 -1282 -205 0
-197 -202 -1302 -205 0
-197 -202 -1322 -205 0
-197 -202 205 1282 1302 1322 0
-197 -203 -1287 -205 0
-197 -203 -1307 -205 0
-197 -203 -1327 -205 0
-197 -203 205 1287 1307 1327 0
-197 -204 205 0
-198 -201 -1297 -205 0
-198 -201 -1317 -205 0
-198 -201 -1337 -205 0
-198 -201 205 1297 1317 1337 0
-198 -202 -1302 -205 0
-198 -202 -1322 -205 0
-198 -202 -1342 -205 0
-198 -202 205 1302 1322 1342 0
-198 -203 -1307 -205 0
-198 -203 -1327 -205 0
-198 -203 -1347 -205 0
-198 -203 205 1307 1327 1347 0
-198 -204 205 0
-199 -201 -1317 -205 0
-199 -201 -1337 -205 0
-199 -201 -1357 -205 0
-199 -201 205 1317 1337 1357 0
-199 -202 -1322 -205 0
-199 -202 -1342 -205 0
-199 -202 -1362 -205 0
-199 -202 205 1322 1342 1362 0
-199 -203 -1327 -205 0
-199 -203 -1347 -205 0
-199 -203 -1367 -205 0
-199 -203 205 1327 1347 1367 0
-199 -204 205 0
-200 -201 -1337 -205 0
-200 -201 -1357 -205 0
-200 -201 -1377 -205 0
-200 -201 205 1337 1357 1377 0
-200 -202 -1342 -205 0
-200 -202 -1362 -205 0
-200 -202 -1382 -205 0
-200 -202 205 1342 1362 1382 0
-200 -203 -1347 -205 0
-200 -203 -1367 -205 0
-200 -203 -1387 -205 0
-200 -203 205 1347 1367 1387 0
-200 -204 205 0
-206 -212 -1397 -216 0
-206 -212 216 1397 0
-206 -213 -1402 -216 0
-206 -213 216 1402 0
-206 -214 -1407 -216 0
-206 -214 216 1407 0
-206 -215 216 0
-207 -212 -1417 -216 0
-207 -212 216 1417 0
-207 -213 -1422 -216 0
-207 -213 216 1422 0
-207 -214 -1427 -216 0
-207 -214 216 1427 0
-207 -215 216 0
-208 -212 -1437 -216 0
-208 -212 216 1437 0
-208 -213 -1442 -216 0
-208 -213 216 1442 0
-208 -214 -1447 -216 0
-208 -214 216 1447 0
-208 -215 216 0
-209 -212 -1457 -216 0
-209 -212 216 1457 0
-209 -213 -1462 -216 0
-209 -213 216 1462 0
-209 -214 -1467 -216 0
-209 -214 216 1467 0
-209 -215 216 0
-210 -212 -1477 -216 0
-210 -212 216 1477 0
-210 -213 -1482 -216 0
-210 -213 216 1482 0
-210 -214 -1487 -216 0
-210 -214 216 1487 0
-210 -215 216 0
-211 -212 -1497 -216 0
-211 -212 216 1497 0
-211 -213 -1502 -216 0
-211 -213 216 1502 0
-211 -214 -1507 -216 0
-211 -214 216 1507 0
-211 -215 216 0
-217 -223 -1397 -227 0
-217 -223 227 1397 0
-217 -224 -1402 -227 0
-217 -224 227 1402 0
-217 -225 -1407 -227 0
-217 -225 227 1407 0
-217 -226 227 0
-218 -223 -1417 -227 0
-218 -223 227 1417 0
-218 -224 -1422 -227 0
-218 -224 227 1422 0
-218 -225 -1427 -227 0
-218 -225 227 1427 0
-218 -226 227 0
-219 -223 -1437 -227 0
-219 -223 227 1437 0
-219 -224 -1442 -227 0
-219 -224 227 1442 0
-219 -225 -1447 -227 0
-219 -225 227 1447 0
-219 -226 227 0
-220 -223 -1457 -227 0
-220 -223 227 1457 0
-220 -224 -1462 -227 0
-220 -224 227 1462 0
-220 -225 -1467 -227 0
-220 -225 227 1467 0
-220 -226 227 0
-221 -223 -1477 -227 0
-221 -223 227 1477 0
-221 -224 -1482 -227 0
-221 -224 227 1482 0
-221 -225 -1487 -227 0
-221 -225 227 1487 0
-221 -226 227 0
-222 -223 -1497 -227 0
-222 -223 227 1497 0
-222 -224 -1502 -227 0
-222 -224 227 1502 0
-222 -225 -1507 -227 0
-222 -225 227 1507 0
-222 -226 227 0
-228 -233 -1397 -237 0
-228 -233 -1417 -237 0
-228 -233 237 1397 1417 0
-228 -234 -1402 -237 0
-228 -234 -1422 -237 0
-228 -234 237 1402 1422 0
-228 -235 -1407 -237 0
-228 -235 -1427 -237 0
-228 -235 237 1407 1427 0
-228 -236 237 0
-229 -233 -1417 -237 0
-229 -233 -1437 -237 0
-229 -233 237 1417 1437 0
-229 -234 -1422 -237 0
-229 -234 -1442 -237 0
-229 -234 237 1422 1442 0
-229 -235 -1427 -237 0
-229 -235 -1447 -237 0
-229 -235 237 1427 1447 0
-229 -236 237 0
-230 -233 -1437 -237 0
-230 -233 -1457 -237 0
-230 -233 237 1437 1457 0
-230 -234 -1442 -237 0
-230 -234 -1462 -237 0
-230 -234 237 1442 1462 0
-230 -235 -1447 -237 0
-230 -235 -1467 -237 0
-230 -235 237 1447 1467 0
-230 -236 237 0
-231 -233 -1457 -237 0
-231 -233 -1477 -237 0
-231 -233 237 1457 1477 0
-231 -234 -1462 -237 0
-231 -234 -1482 -237 0
-231 -234 237 1462 1482 0
-231 -235 -1467 -237 0
-231 -235 -1487 -237 0
-231 -235 237 1467 1487 0
-231 -236 237 0
-232 -233 -1477 -237 0
-232 -233 -1497 -237 0
-232 -233 237 1477 1497 0
-232 -234 -1482 -237 0
-232 -234 -1502 -237 0
-232 -234 237 1482 1502 0
-232 -235 -1487 -237 0
-232 -235 -1507 -237 0
-232 -235 237 1487 1507 0
-232 -236 237 0
-238 -242 -1397 -246 0
-238 -242 -1417 -246 0
-238 -242 -1437 -246 0
-238 -242 246 1397 1417 1437 0
-238 -243 -1402 -246 0
-238 -243 -1422 -246 0
-238 -243 -1442 -246 0
-238 -243 246 1402 1422 1442 0
-238 -244 -1407 -246 0
-238 -244 -1427 -246 0
-238 -244 -1447 -246 0
-238 -244 246 1407 1427 1447 0
-238 -245 246 0
-239 -242 -1417 -246 0
-239 -242 -1437 -246 0
-239 -242 -1457 -246 0
-239 -242 246 1417 1437 1457 0
-239 -243 -1422 -246 0
-239 -243 -1442 -246 0
-239 -243 -1462 -246 0
-239 -243 246 1422 1442 1462 0
-239 -244 -1427 -246 0
-239 -244 -1447 -246 0
-239 -244 -1467 -246 0
-239 -244 246 1427 1447 1467 0
-239 -245 246 0
-240 -242 -1437 -246 0
-240 -242 -1457 -246 0
-240 -242 -1477 -246 0
-240 -242 246 1437 1457 1477 0
-240 -243 -1442 -246 0
-240 -243 -1462 -246 0
-240 -243 -1482 -246 0
-240 -243 246 1442 1462 1482 0
-240 -244 -1447 -246 0
-240 -244 -1467 -246 0
-240 -244 -1487 -246 0
-240 -244 246 1447 1467 1487 0
-240 -245 246 0
-241 -242 -1457 -246 0
-241 -242 -1477 -246 0
-241 -242 -1497 -246 0
-241 -242 246 1457 1477 1497 0
-241 -243 -1462 -246 0
-241 -243 -1482 -246 0
-241 -243 -1502 -246 0
-241 -243 246 1462 1482 1502 0
-241 -244 -1467 -246 0
-241 -244 -1487 -246 0
-241 -244 -1507 -246 0
-241 -244 246 1467 1487 1507 0
-241 -245 246 0
-247 -253 -1517 -257 0
-247 -253 257 1517 0
-247 -254 -1522 -257 0
-247 -254 257 1522 0
-247 -255 -1527 -257 0
-247 -255 257 1527 0
-247 -256 257 0
-248 -253 -1537 -257 0
-248 -253 257 1537 0
-248 -254 -1542 -257 0
-248 -254 257 1542 0
-248 -255 -1547 -257 0
-248 -255 257 1547 0
-248 -256 257 0
-249 -253 -1557 -257 0
-249 -253 257 1557 0
-249 -254 -1562 -257 0
-249 -254 257 1562 0
-249 -255 -1567 -257 0
-249 -255 257 1567 0
-249 -256 257 0
-250 -253 -1577 -257 0
-250 -253 257 1577 0
-250 -254 -1582 -257 0
-250 -254 257 1582 0
-250 -255 -1587 -257 0
-250 -255 257 1587 0
-250 -256 257 0
-251 -253 -1597 -257 0
-251 -253 257 1597 0
-251 -254 -1602 -257 0
-251 -254 257 1602 0
-251 -255 -1607 -257 0
-251 -255 257 1607 0
-251 -256 257 0
-252 -253 -1617 -257 0
-252 -253 257 1617 0
-252 -254 -1622 -257 0
-252 -254 257 1622 0
-252 -255 -1627 -257 0
-252 -255 257 1627 0
-252 -256 257 0
-258 -264 -1517 -268 0
-258 -264 268 1517 0
-258 -265 -1522 -268 0
-258 -265 268 1522 0
-258 -266 -1527 -268 0
-258 -266 268 1527 0
-258 -267 268 0
-259 -264 -1537 -268 0
-259 -264 268 1537 0
-259 -265 -1542 -268 0
-259 -265 268 1542 0
-259 -266 -1547 -268 0
-259 -266 268 1547 0
-259 -267 268 0
-260 -264 -1557 -268 0
-260 -264 268 1557 0
-260 -265 -1562 -268 0
-260 -265 268 1562 0
-260 -266 -1567 -268 0
-260 -266 268 1567 0
-260 -267 268 0
-261 -264 -1577 -268 0
-261 -264 268 1577 0
-261 -265 -1582 -268 0
-261 -265 268 1582 0
-261 -266 -1587 -268 0
-261 -266 268 1587 0
-261 -267 268 0
-262 -264 -1597 -268 0
-262 -264 268 1597 0
-262 -265 -1602 -268 0
-262 -265 268 1602 0
-262 -266 -1607 -268 0
-262 -266 268 1607 0
-262 -267 268 0
-263 -264 -1617 -268 0
-263 -264 268 1617 0
-263 -265 -1622 -268 0
-263 -265 268 1622 0
-263 -266 -1627 -268 0
-263 -266 268 1627 0
-263 -267 268 0
-269 -274 -1517 -278 0
-269 -274 -1537 -278 0
-269 -274 278 1517 1537 0
-269 -275 -1522 -278 0
-269 -275 -1542 -278 0
-269 -275 278 1522 1542 0
-269 -276 -1527 -278 0
-269 -276 -1547 -278 0
-269 -276 278 1527 1547 0
-269 -277 278 0
-270 -274 -1537 -278 0
-270 -274 -1557 -278 0
-270 -274 278 1537 1557 0
-270 -275 -1542 -278 0
-270 -275 -1562 -278 0
-270 -275 278 1542 1562 0
-270 -276 -1547 -278 0
-270 -276 -1567 -278 0
-270 -276 278 1547 1567 0
-270 -277 278 0
-271 -274 -1557 -278 0
-271 -274 -1577 -278 0
-271 -274 278 1557 1577 0
-271 -275 -1562 -278 0
-271 -275 -1582 -278 0
-271 -275 278 1562 1582 0
-271 -276 -1567 -278 0
-271 -276 -1587 -278 0
-271 -276 278 1567 1587 0
-271 -277 278 0
-272 -274 -1577 -278 0
-272 -274 -1597 -278 0
-272 -274 278 1577 1597 0
-272 -275 -1582 -278 0
-272 -275 -1602 -278 0
-272 -275 278 1582 1602 0
-272 -276 -1587 -278 0
-272 -276 -1607 -278 0
-272 -276 278 1587 1607 0
-272 -277 278 0
-273 -274 -1597 -278 0
-273 -274 -1617 -278 0
-273 -274 278 1597 1617 0
-273 -275 -1602 -278 0
-273 -275 -1622 -278 0
-273 -275 278 1602 1622 0
-273 -276 -1607 -278 0
-273 -276 -1627 -278 0
-273 -276 278 1607 1627 0
-273 -277 278 0
-279 -283 -1517 -287 0
-279 -283 -1537 -287 0
-279 -283 -1557 -287 0
-279 -283 287 1517 1537 1557 0
-279 -284 -1522 -287 0
-279 -284 -1542 -287 0
-279 -284 -1562 -287 0
-279 -284 287 1522 1542 1562 0
-279 -285 -1527 -287 0
-279 -285 -1547 -287 0
-279 -285 -1567 -287 0
-279 -285 287 1527 1547 1567 0
-279 -286 287 0
-280 -283 -1537 -287 0
-280 -283 -1557 -287 0
-280 -283 -1577 -287 0
-280 -283 287 1537 1557 1577 0
-280 -284 -1542 -287 0
-280 -284 -1562 -287 0
-280 -284 -1582 -287 0
-280 -284 287 1542 1562 1582 0
-280 -285 -1547 -287 0
-280 -285 -1567 -287 0
-280 -285 -1587 -287 0
-280 -285 287 1547 1567 1587 0
-280 -286 287 0
-281 -283 -1557 -287 0
-281 -283 -1577 -287 0
-281 -283 -1597 -287 0
-281 -283 287 1557 1577 1597 0
-281 -284 -1562 -287 0
-281 -284 -1582 -287 0
-281 -284 -1602 -287 0
-281 -284 287 1562 1582 1602 0
-281 -285 -1567 -287 0
-281 -285 -1587 -287 0
-281 -285 -1607 -287 0
-281 -285 287 1567 1587 1607 0
-281 -286 287 0
-282 -283 -1577 -287 0
-282 -283 -1597 -287 0
-282 -283 -1617 -287 0
-282 -283 287 1577 1597 1617 0
-282 -284 -1582 -287 0
-282 -284 -1602 -287 0
-282 -284 -1622 -287 0
-282 -284 287 1582 1602 1622 0
-282 -285 -1587 -287 0
-282 -285 -1607 -287 0
-282 -285 -1627 -287 0
-282 -285 287 1587 1607 1627 0
-282 -286 287 0
-288 11 0
-288 -21 0
-288 -1 -18 -8 0
-288 -1 -19 -9 0
-288 -1 -20 -10 0
-288 -13 0
-288 -14 0
-288 -15 0
-288 -16 0
-288 -17 0
-288 -18 -23 -29 0
-288 -18 -23 -30 0
-288 -18 -23 -31 0
-288 -19 -23 -30 0
-288 -19 -23 -31 0
-288 -20 -23 -31 0
-288 -18 -33 -38 0
-288 -18 -33 -39 0
-288 -18 -33 -40 0
-288 -19 -33 -39 0
-288 -19 -33 -40 0
-288 -20 -33 -40 0
-288 42 0
-288 -18 49 0
-288 -19 50 0
-288 -20 51 0
-288 -63 0
-289 11 0
-289 -21 0
-289 -2 -18 -8 0
-289 -2 -19 -9 0
-289 -2 -20 -10 0
-289 -12 0
-289 -14 0
-289 -15 0
-289 -16 0
-289 -17 0
-289 -18 -23 -29 0
-289 -18 -23 -30 0
-289 -18 -23 -31 0
-289 -19 -23 -30 0
-289 -19 -23 -31 0
-289 -20 -23 -31 0
-289 -18 -24 -29 0
-289 -18 -24 -30 0
-289 -18 -24 -31 0
-289 -19 -24 -30 0
-289 -19 -24 -31 0
-289 -20 -24 -31 0
-289 -18 -33 -38 0
-289 -18 -33 -39 0
-289 -18 -33 -40 0
-289 -19 -33 -39 0
-289 -19 -33 -40 0
-289 -20 -33 -40 0
-289 -18 -34 -38 0
-289 -18 -34 -39 0
-289 -18 -34 -40 0
-289 -19 -34 -39 0
-289 -19 -34 -40 0
-289 -20 -34 -40 0
-289 43 0
-289 -18 49 0
-289 -19 50 0
-289 -20 51 0
-289 -63 0
-290 11 0
-290 -21 0
-290 -3 -18 -8 0
-290 -3 -19 -9 0
-290 -3 -20 -10 0
-290 -12 0
-290 -13 0
-290 -15 0
-290 -16 0
-290 -17 0
-290 -18 -24 -29 0
-290 -18 -24 -30 0
-290 -18 -24 -31 0
-290 -19 -24 -30 0
-290 -19 -24 -31 0
-290 -20 -24 -31 0
-290 -18 -25 -29 0
-290 -18 -25 -30 0
-290 -18 -25 -31 0
-290 -19 -25 -30 0
-290 -19 -25 -31 0
-290 -20 -25 -31 0
-290 -18 -33 -38 0
-290 -18 -33 -39 0
-290 -18 -33 -40 0
-290 -19 -33 -39 0
-290 -19 -33 -40 0
-290 -20 -33 -40 0
-290 -18 -34 -38 0
-290 -18 -34 -39 0
-290 -18 -34 -40 0
-290 -19 -34 -39 0
-290 -19 -34 -40 0
-290 -20 -34 -40 0
-290 -18 -35 -38 0
-290 -18 -35 -39 0
-290 -18 -35 -40 0
-290 -19 -35 -39 0
-290 -19 -35 -40 0
-290 -20 -35 -40 0
-290 44 0
-290 -18 49 0
-290 -19 50 0
-290 -20 51 0
-290 -63 0
-291 11 0
-291 -21 0
-291 -4 -18 -8 0
-291 -4 -19 -9 0
-291 -4 -20 -10 0
-291 -12 0
-291 -13 0
-291 -14 0
-291 -16 0
-291 -17 0
-291 -18 -25 -29 0
-291 -18 -25 -30 0
-291 -18 -25 -31 0
-291 -19 -25 -30 0
-291 -19 -25 -31 0
-291 -20 -25 -31 0
-291 -18 -26 -29 0
-291 -18 -26 -30 0
-291 -18 -26 -31 0
-291 -19 -26 -30 0
-291 -19 -26 -31 0
-291 -20 -26 -31 0
-291 -18 -34 -38 0
-291 -18 -34 -39 0
-291 -18 -34 -40 0
-291 -19 -34 -39 0
-291 -19 -34 -40 0
-291 -20 -34 -40 0
-291 -18 -35 -38 0
-291 -18 -35 -39 0
-291 -18 -35 -40 0
-291 -19 -35 -39 0
-291 -19 -35 -40 0
-291 -20 -35 -40 0
-291 -18 -36 -38 0
-291 -18 -36 -39 0
-291 -18 -36 -40 0
-291 -19 -36 -39 0
-291 -19 -36 -40 0
-291 -20 -36 -40 0
-291 45 0
-291 -18 49 0
-291 -19 50 0
-291 -20 51 0
-291 -63 0
-292 11 0
-292 -21 0
-292 -5 -18 -8 0
-292 -5 -19 -9 0
-292 -5 -20 -10 0
-292 -12 0
-292 -13 0
-292 -14 0
-292 -15 0
-292 -17 0
-292 -18 -26 -29 0
-292 -18 -26 -30 0
-292 -18 -26 -31 0
-292 -19 -26 -30 0
-292 -19 -26 -31 0
-292 -20 -26 -31 0
-292 -18 -27 -29 0
-292 -18 -27 -30 0
-292 -18 -27 -31 0
-292 -19 -27 -30 0
-292 -19 -27 -31 0
-292 -20 -27 -31 0
-292 -18 -35 -38 0
-292 -18 -35 -39 0
-292 -18 -35 -40 0
-292 -19 -35 -39 0
-292 -19 -35 -40 0
-292 -20 -35 -40 0
-292 -18 -36 -38 0
-292 -18 -36 -39 0
-292 -18 -36 -40 0
-292 -19 -36 -39 0
-292 -19 -36 -40 0
-292 -20 -36 -40 0
-292 46 0
-292 -18 49 0
-292 -19 50 0
-292 -20 51 0
-292 -63 0
-293 11 0
-293 -21 0
-293 -6 -18 -8 0
-293 -6 -19 -9 0
-293 -6 -20 -10 0
-293 -12 0
-293 -13 0
-293 -14 0
-293 -15 0
-293 -16 0
-293 -18 -27 -29 0
-293 -18 -27 -30 0
-293 -18 -27 -31 0
-293 -19 -27 -30 0
-293 -19 -27 -31 0
-293 -20 -27 -31 0
-293 -18 -36 -38 0
-293 -18 -36 -39 0
-293 -18 -36 -40 0
-293 -19 -36 -39 0
-293 -19 -36 -40 0
-293 -20 -36 -40 0
-293 47 0
-293 -18 49 0
-293 -19 50 0
-293 -20 51 0
-293 -63 0
-294 11 0
-294 -31 0
-294 -1 -28 -8 0
-294 -1 -29 -9 0
-294 -1 -30 -10 0
-294 -24 0
-294 -25 0
-294 -26 0
-294 -27 0
-294 -28 -12 -19 0
-294 -28 -12 -20 0
-294 -28 -12 -21 0
-294 -29 -12 -20 0
-294 -29 -12 -21 0
-294 -30 -12 -21 0
-294 -28 -33 -38 0
-294 -28 -33 -39 0
-294 -28 -33 -40 0
-294 -29 -33 -39 0
-294 -29 -33 -40 0
-294 -30 -33 -40 0
-294 42 0
-294 -28 49 0
-294 -29 50 0
-294 -30 51 0
-294 -73 0
-295 11 0
-295 -31 0
-295 -2 -28 -8 0
-295 -2 -29 -9 0
-295 -2 -30 -10 0
-295 -25 0
-295 -26 0
-295 -27 0
-295 -28 -13 -19 0
-295 -28 -13 -20 0
-295 -28 -13 -21 0
-295 -29 -13 -20 0
-295 -29 -13 -21 0
-295 -30 -13 -21 0
-295 -28 -33 -38 0
-295 -28 -33 -39 0
-295 -28 -33 -40 0
-295 -29 -33 -39 0
-295 -29 -33 -40 0
-295 -30 -33 -40 0
-295 -28 -34 -38 0
-295 -28 -34 -39 0
-295 -28 -34 -40 0
-295 -29 -34 -39 0
-295 -29 -34 -40 0
-295 -30 -34 -40 0
-295 43 0
-295 -28 49 0
-295 -29 50 0
-295 -30 51 0
-295 -73 0
-296 11 0
-296 -31 0
-296 -3 -28 -8 0
-296 -3 -29 -9 0
-296 -3 -30 -10 0
-296 -23 0
-296 -26 0
-296 -27 0
-296 -28 -14 -19 0
-296 -28 -14 -20 0
-296 -28 -14 -21 0
-296 -29 -14 -20 0
-296 -29 -14 -21 0
-296 -30 -14 -21 0
-296 -28 -33 -38 0
-296 -28 -33 -39 0
-296 -28 -33 -40 0
-296 -29 -33 -39 0
-296 -29 -33 -40 0
-296 -30 -33 -40 0
-296 -28 -34 -38 0
-296 -28 -34 -39 0
-296 -28 -34 -40 0
-296 -29 -34 -39 0
-296 -29 -34 -40 0
-296 -30 -34 -40 0
-296 -28 -35 -38 0
-296 -28 -35 -39 0
-296 -28 -35 -40 0
-296 -29 -35 -39 0
-296 -29 -35 -40 0
-296 -30 -35 -40 0
-296 44 0
-296 -28 49 0
-296 -29 50 0
-296 -30 51 0
-296 -73 0
-297 11 0
-297 -31 0
-297 -4 -28 -8 0
-297 -4 -29 -9 0
-297 -4 -30 -10 0
-297 -23 0
-297 -24 0
-297 -27 0
-297 -28 -15 -19 0
-297 -28 -15 -20 0
-297 -28 -15 -21 0
-297 -29 -15 -20 0
-297 -29 -15 -21 0
-297 -30 -15 -21 0
-297 -28 -34 -38 0
-297 -28 -34 -39 0
-297 -28 -34 -40 0
-297 -29 -34 -39 0
-297 -29 -34 -40 0
-297 -30 -34 -40 0
-297 -28 -35 -38 0
-297 -28 -35 -39 0
-297 -28 -35 -40 0
-297 -29 -35 -39 0
-297 -29 -35 -40 0
-297 -30 -35 -40 0
-297 -28 -36 -38 0
-297 -28 -36 -39 0
-297 -28 -36 -40 0
-297 -29 -36 -39 0
-297 -29 -36 -40 0
-297 -30 -36 -40 0
-297 45 0
-297 -28 49 0
-297 -29 50 0
-297 -30 51 0
-297 -73 0
-298 11 0
-298 -31 0
-298 -5 -28 -8 0
-298 -5 -29 -9 0
-298 -5 -30 -10 0
-298 -23 0
-298 -24 0
-298 -25 0
-298 -28 -16 -19 0
-298 -28 -16 -20 0
-298 -28 -16 -21 0
-298 -29 -16 -20 0
-298 -29 -16 -21 0
-298 -30 -16 -21 0
-298 -28 -35 -38 0
-298 -28 -35 -39 0
-298 -28 -35 -40 0
-298 -29 -35 -39 0
-298 -29 -35 -40 0
-298 -30 -35 -40 0
-298 -28 -36 -38 0
-298 -28 -36 -39 0
-298 -28 -36 -40 0
-298 -29 -36 -39 0
-298 -29 -36 -40 0
-298 -30 -36 -40 0
-298 46 0
-298 -28 49 0
-298 -29 50 0
-298 -30 51 0
-298 -73 0
-299 11 0
-299 -31 0
-299 -6 -28 -8 0
-299 -6 -29 -9 0
-299 -6 -30 -10 0
-299 -23 0
-299 -24 0
-299 -25 0
-299 -26 0
-299 -28 -17 -19 0
-299 -28 -17 -20 0
-299 -28 -17 -21 0
-299 -29 -17 -20 0
-299 -29 -17 -21 0
-299 -30 -17 -21 0
-299 -28 -36 -38 0
-299 -28 -36 -39 0
-299 -28 -36 -40 0
-299 -29 -36 -39 0
-299 -29 -36 -40 0
-299 -30 -36 -40 0
-299 47 0
-299 -28 49 0
-299 -29 50 0
-299 -30 51 0
-299 -73 0
-300 11 0
-300 -40 0
-300 -1 -37 -8 0
-300 -1 -38 -9 0
-300 -1 -39 -10 0
-300 -34 0
-300 -35 0
-300 -36 0
-300 -37 -12 -19 0
-300 -37 -12 -20 0
-300 -37 -12 -21 0
-300 -38 -12 -20 0
-300 -38 -12 -21 0
-300 -39 -12 -21 0
-300 -37 -23 -29 0
-300 -37 -23 -30 0
-300 -37 -23 -31 0
-300 -38 -23 -30 0
-300 -38 -23 -31 0
-300 -39 -23 -31 0
-300 42 0
-300 -37 49 0
-300 -38 50 0
-300 -39 51 0
-300 -82 0
-301 11 0
-301 -40 0
-301 -2 -37 -8 0
-301 -2 -38 -9 0
-301 -2 -39 -10 0
-301 -35 0
-301 -36 0
-301 -37 -13 -19 0
-301 -37 -13 -20 0
-301 -37 -13 -21 0
-301 -38 -13 -20 0
-301 -38 -13 -21 0
-301 -39 -13 -21 0
-301 -37 -23 -29 0
-301 -37 -23 -30 0
-301 -37 -23 -31 0
-301 -38 -23 -30 0
-301 -38 -23 -31 0
-301 -39 -23 -31 0
-301 -37 -24 -29 0
-301 -37 -24 -30 0
-301 -37 -24 -31 0
-301 -38 -24 -30 0
-301 -38 -24 -31 0
-301 -39 -24 -31 0
-301 43 0
-301 -37 49 0
-301 -38 50 0
-301 -39 51 0
-301 -82 0
-302 11 0
-302 -40 0
-302 -3 -37 -8 0
-302 -3 -38 -9 0
-302 -3 -39 -10 0
-302 -36 0
-302 -37 -14 -19 0
-302 -37 -14 -20 0
-302 -37 -14 -21 0
-302 -38 -14 -20 0
-302 -38 -14 -21 0
-302 -39 -14 -21 0
-302 -37 -24 -29 0
-302 -37 -24 -30 0
-302 -37 -24 -31 0
-302 -38 -24 -30 0
-302 -38 -24 -31 0
-302 -39 -24 -31 0
-302 -37 -25 -29 0
-302 -37 -25 -30 0
-302 -37 -25 -31 0
-302 -38 -25 -30 0
-302 -38 -25 -31 0
-302 -39 -25 -31 0
-302 44 0
-302 -37 49 0
-302 -38 50 0
-302 -39 51 0
-302 -82 0
-303 11 0
-303 -40 0
-303 -4 -37 -8 0
-303 -4 -38 -9 0
-303 -4 -39 -10 0
-303 -33 0
-303 -37 -15 -19 0
-303 -37 -15 -20 0
-303 -37 -15 -21 0
-303 -38 -15 -20 0
-303 -38 -15 -21 0
-303 -39 -15 -21 0
-303 -37 -25 -29 0
-303 -37 -25 -30 0
-303 -37 -25 -31 0
-303 -38 -25 -30 0
-303 -38 -25 -31 0
-303 -39 -25 -31 0
-303 -37 -26 -29 0
-303 -37 -26 -30 0
-303 -37 -26 -31 0
-303 -38 -26 -30 0
-303 -38 -26 -31 0
-303 -39 -26 -31 0
-303 45 0
-303 -37 49 0
-303 -38 50 0
-303 -39 51 0
-303 -82 0
-304 11 0
-304 -40 0
-304 -5 -37 -8 0
-304 -5 -38 -9 0
-304 -5 -39 -10 0
-304 -33 0
-304 -34 0
-304 -37 -16 -19 0
-304 -37 -16 -20 0
-304 -37 -16 -21 0
-304 -38 -16 -20 0
-304 -38 -16 -21 0
-304 -39 -16 -21 0
-304 -37 -26 -29 0
-304 -37 -26 -30 0
-304 -37 -26 -31 0
-304 -38 -26 -30 0
-304 -38 -26 -31 0
-304 -39 -26 -31 0
-304 -37 -27 -29 0
-304 -37 -27 -30 0
-304 -37 -27 -31 0
-304 -38 -27 -30 0
-304 -38 -27 -31 0
-304 -39 -27 -31 0
-304 46 0
-304 -37 49 0
-304 -38 50 0
-304 -39 51 0
-304 -82 0
-305 11 0
-305 -40 0
-305 -6 -37 -8 0
-305 -6 -38 -9 0
-305 -6 -39 -10 0
-305 -33 0
-305 -34 0
-305 -35 0
-305 -37 -17 -19 0
-305 -37 -17 -20 0
-305 -37 -17 -21 0
-305 -38 -17 -20 0
-305 -38 -17 -21 0
-305 -39 -17 -21 0
-305 -37 -27 -29 0
-305 -37 -27 -30 0
-305 -37 -27 -31 0
-305 -38 -27 -30 0
-305 -38 -27 -31 0
-305 -39 -27 -31 0
-305 47 0
-305 -37 49 0
-305 -38 50 0
-305 -39 51 0
-305 -82 0
-306 11 0
-306 -1 -7 0
-306 -12 -18 0
-306 -12 -19 0
-306 -12 -20 0
-306 -12 -21 0
-306 -23 -28 0
-306 -23 -29 0
-306 -23 -30 0
-306 -23 -31 0
-306 -33 -37 0
-306 -33 -38 0
-306 -33 -39 0
-306 -33 -40 0
-306 42 0
-306 48 0
-307 11 0
-307 -2 -7 0
-307 -13 -18 0
-307 -13 -19 0
-307 -13 -20 0
-307 -13 -21 0
-307 -23 -28 0
-307 -23 -29 0
-307 -23 -30 0
-307 -23 -31 0
-307 -24 -28 0
-307 -24 -29 0
-307 -24 -30 0
-307 -24 -31 0
-307 -33 -37 0
-307 -33 -38 0
-307 -33 -39 0
-307 -33 -40 0
-307 -34 -37 0
-307 -34 -38 0
-307 -34 -39 0
-307 -34 -40 0
-307 43 0
-307 48 0
-308 11 0
-308 -3 -7 0
-308 -14 -18 0
-308 -14 -19 0
-308 -14 -20 0
-308 -14 -21 0
-308 -24 -28 0
-308 -24 -29 0
-308 -24 -30 0
-308 -24 -31 0
-308 -25 -28 0
-308 -25 -29 0
-308 -25 -30 0
-308 -25 -31 0
-308 -33 -37 0
-308 -33 -38 0
-308 -33 -39 0
-308 -33 -40 0
-308 -34 -37 0
-308 -34 -38 0
-308 -34 -39 0
-308 -34 -40 0
-308 -35 -37 0
-308 -35 -38 0
-308 -35 -39 0
-308 -35 -40 0
-308 44 0
-308 48 0
-309 11 0
-309 -4 -7 0
-309 -15 -18 0
-309 -15 -19 0
-309 -15 -20 0
-309 -15 -21 0
-309 -25 -28 0
-309 -25 -29 0
-309 -25 -30 0
-309 -25 -31 0
-309 -26 -28 0
-309 -26 -29 0
-309 -26 -30 0
-309 -26 -31 0
-309 -34 -37 0
-309 -34 -38 0
-309 -34 -39 0
-309 -34 -40 0
-309 -35 -37 0
-309 -35 -38 0
-309 -35 -39 0
-309 -35 -40 0
-309 -36 -37 0
-309 -36 -38 0
-309 -36 -39 0
-309 -36 -40 0
-309 45 0
-309 48 0
-310 11 0
-310 -5 -7 0
-310 -16 -18 0
-310 -16 -19 0
-310 -16 -20 0
-310 -16 -21 0
-310 -26 -28 0
-310 -26 -29 0
-310 -26 -30 0
-310 -26 -31 0
-310 -27 -28 0
-310 -27 -29 0
-310 -27 -30 0
-310 -27 -31 0
-310 -35 -37 0
-310 -35 -38 0
-310 -35 -39 0
-310 -35 -40 0
-310 -36 -37 0
-310 -36 -38 0
-310 -36 -39 0
-310 -36 -40 0
-310 46 0
-310 48 0
-311 11 0
-311 -6 -7 0
-311 -17 -18 0
-311 -17 -19 0
-311 -17 -20 0
-311 -17 -21 0
-311 -27 -28 0
-311 -27 -29 0
-311 -27 -30 0
-311 -27 -31 0
-311 -36 -37 0
-311 -36 -38 0
-311 -36 -39 0
-311 -36 -40 0
-311 47 0
-311 48 0
-312 22 0
-312 -10 0
-312 -12 -7 -19 0
-312 -12 -8 -20 0
-312 -12 -9 -21 0
-312 -2 0
-312 -3 0
-312 -4 0
-312 -5 0
-312 -6 0
-312 -7 -23 -29 0
-312 -7 -23 -30 0
-312 -7 -23 -31 0
-312 -8 -23 -30 0
-312 -8 -23 -31 0
-312 -9 -23 -31 0
-312 -7 -33 -38 0
-312 -7 -33 -39 0
-312 -7 -33 -40 0
-312 -8 -33 -39 0
-312 -8 -33 -40 0
-312 -9 -33 -40 0
-312 53 0
-312 -7 60 0
-312 -8 61 0
-312 -9 62 0
-312 -52 0
-313 22 0
-313 -10 0
-313 -13 -7 -19 0
-313 -13 -8 -20 0
-313 -13 -9 -21 0
-313 -1 0
-313 -3 0
-313 -4 0
-313 -5 0
-313 -6 0
-313 -7 -23 -29 0
-313 -7 -23 -30 0
-313 -7 -23 -31 0
-313 -8 -23 -30 0
-313 -8 -23 -31 0
-313 -9 -23 -31 0
-313 -7 -24 -29 0
-313 -7 -24 -30 0
-313 -7 -24 -31 0
-313 -8 -24 -30 0
-313 -8 -24 -31 0
-313 -9 -24 -31 0
-313 -7 -33 -38 0
-313 -7 -33 -39 0
-313 -7 -33 -40 0
-313 -8 -33 -39 0
-313 -8 -33 -40 0
-313 -9 -33 -40 0
-313 -7 -34 -38 0
-313 -7 -34 -39 0
-313 -7 -34 -40 0
-313 -8 -34 -39 0
-313 -8 -34 -40 0
-313 -9 -34 -40 0
-313 54 0
-313 -7 60 0
-313 -8 61 0
-313 -9 62 0
-313 -52 0
-314 22 0
-314 -10 0
-314 -14 -7 -19 0
-314 -14 -8 -20 0
-314 -14 -9 -21 0
-314 -1 0
-314 -2 0
-314 -4 0
-314 -5 0
-314 -6 0
-314 -7 -24 -29 0
-314 -7 -24 -30 0
-314 -7 -24 -31 0
-314 -8 -24 -30 0
-314 -8 -24 -31 0
-314 -9 -24 -31 0
-314 -7 -25 -29 0
-314 -7 -25 -30 0
-314 -7 -25 -31 0
-314 -8 -25 -30 0
-314 -8 -25 -31 0
-314 -9 -25 -31 0
-314 -7 -33 -38 0
-314 -7 -33 -39 0
-314 -7 -33 -40 0
-314 -8 -33 -39 0
-314 -8 -33 -40 0
-314 -9 -33 -40 0
-314 -7 -34 -38 0
-314 -7 -34 -39 0
-314 -7 -34 -40 0
-314 -8 -34 -39 0
-314 -8 -34 -40 0
-314 -9 -34 -40 0
-314 -7 -35 -38 0
-314 -7 -35 -39 0
-314 -7 -35 -40 0
-314 -8 -35 -39 0
-314 -8 -35 -40 0
-314 -9 -35 -40 0
-314 55 0
-314 -7 60 0
-314 -8 61 0
-314 -9 62 0
-314 -52 0
-315 22 0
-315 -10 0
-315 -15 -7 -19 0
-315 -15 -8 -20 0
-315 -15 -9 -21 0
-315 -1 0
-315 -2 0
-315 -3 0
-315 -5 0
-315 -6 0
-315 -7 -25 -29 0
-315 -7 -25 -30 0
-315 -7 -25 -31 0
-315 -8 -25 -30 0
-315 -8 -25 -31 0
-315 -9 -25 -31 0
-315 -7 -26 -29 0
-315 -7 -26 -30 0
-315 -7 -26 -31 0
-315 -8 -26 -30 0
-315 -8 -26 -31 0
-315 -9 -26 -31 0
-315 -7 -34 -38 0
-315 -7 -34 -39 0
-315 -7 -34 -40 0
-315 -8 -34 -39 0
-315 -8 -34 -40 0
-315 -9 -34 -40 0
-315 -7 -35 -38 0
-315 -7 -35 -39 0
-315 -7 -35 -40 0
-315 -8 -35 -39 0
-315 -8 -35 -40 0
-315 -9 -35 -40 0
-315 -7 -36 -38 0
-315 -7 -36 -39 0
-315 -7 -36 -40 0
-315 -8 -36 -39 0
-315 -8 -36 -40 0
-315 -9 -36 -40 0
-315 56 0
-315 -7 60 0
-315 -8 61 0
-315 -9 62 0
-315 -52 0
-316 22 0
-316 -10 0
-316 -16 -7 -19 0
-316 -16 -8 -20 0
-316 -16 -9 -21 0
-316 -1 0
-316 -2 0
-316 -3 0
-316 -4 0
-316 -6 0
-316 -7 -26 -29 0
-316 -7 -26 -30 0
-316 -7 -26 -31 0
-316 -8 -26 -30 0
-316 -8 -26 -31 0
-316 -9 -26 -31 0
-316 -7 -27 -29 0
-316 -7 -27 -30 0
-316 -7 -27 -31 0
-316 -8 -27 -30 0
-316 -8 -27 -31 0
-316 -9 -27 -31 0
-316 -7 -35 -38 0
-316 -7 -35 -39 0
-316 -7 -35 -40 0
-316 -8 -35 -39 0
-316 -8 -35 -40 0
-316 -9 -35 -40 0
-316 -7 -36 -38 0
-316 -7 -36 -39 0
-316 -7 -36 -40 0
-316 -8 -36 -39 0
-316 -8 -36 -40 0
-316 -9 -36 -40 0
-316 57 0
-316 -7 60 0
-316 -8 61 0
-316 -9 62 0
-316 -52 0
-317 22 0
-317 -10 0
-317 -17 -7 -19 0
-317 -17 -8 -20 0
-317 -17 -9 -21 0
-317 -1 0
-317 -2 0
-317 -3 0
-317 -4 0
-317 -5 0
-317 -7 -27 -29 0
-317 -7 -27 -30 0
-317 -7 -27 -31 0
-317 -8 -27 -30 0
-317 -8 -27 -31 0
-317 -9 -27 -31 0
-317 -7 -36 -38 0
-317 -7 -36 -39 0
-317 -7 -36 -40 0
-317 -8 -36 -39 0
-317 -8 -36 -40 0
-317 -9 -36 -40 0
-317 58 0
-317 -7 60 0
-317 -8 61 0
-317 -9 62 0
-317 -52 0
-318 22 0
-318 -31 0
-318 -12 -28 -19 0
-318 -12 -29 -20 0
-318 -12 -30 -21 0
-318 -24 0
-318 -25 0
-318 -26 0
-318 -27 0
-318 -28 -1 -8 0
-318 -28 -1 -9 0
-318 -28 -1 -10 0
-318 -29 -1 -9 0
-318 -29 -1 -10 0
-318 -30 -1 -10 0
-318 -28 -33 -38 0
-318 -28 -33 -39 0
-318 -28 -33 -40 0
-318 -29 -33 -39 0
-318 -29 -33 -40 0
-318 -30 -33 -40 0
-318 53 0
-318 -28 60 0
-318 -29 61 0
-318 -30 62 0
-318 -73 0
-319 22 0
-319 -31 0
-319 -13 -28 -19 0
-319 -13 -29 -20 0
-319 -13 -30 -21 0
-319 -25 0
-319 -26 0
-319 -27 0
-319 -28 -2 -8 0
-319 -28 -2 -9 0
-319 -28 -2 -10 0
-319 -29 -2 -9 0
-319 -29 -2 -10 0
-319 -30 -2 -10 0
-319 -28 -33 -38 0
-319 -28 -33 -39 0
-319 -28 -33 -40 0
-319 -29 -33 -39 0
-319 -29 -33 -40 0
-319 -30 -33 -40 0
-319 -28 -34 -38 0
-319 -28 -34 -39 0
-319 -28 -34 -40 0
-319 -29 -34 -39 0
-319 -29 -34 -40 0
-319 -30 -34 -40 0
-319 54 0
-319 -28 60 0
-319 -29 61 0
-319 -30 62 0
-319 -73 0
-320 22 0
-320 -31 0
-320 -14 -28 -19 0
-320 -14 -29 -20 0
-320 -14 -30 -21 0
-320 -23 0
-320 -26 0
-320 -27 0
-320 -28 -3 -8 0
-320 -28 -3 -9 0
-320 -28 -3 -10 0
-320 -29 -3 -9 0
-320 -29 -3 -10 0
-320 -30 -3 -10 0
-320 -28 -33 -38 0
-320 -28 -33 -39 0
-320 -28 -33 -40 0
-320 -29 -33 -39 0
-320 -29 -33 -40 0
-320 -30 -33 -40 0
-320 -28 -34 -38 0
-320 -28 -34 -39 0
-320 -28 -34 -40 0
-320 -29 -34 -39 0
-320 -29 -34 -40 0
-320 -30 -34 -40 0
-320 -28 -35 -38 0
-320 -28 -35 -39 0
-320 -28 -35 -40 0
-320 -29 -35 -39 0
-320 -29 -35 -40 0
-320 -30 -35 -40 0
-320 55 0
-320 -28 60 0
-320 -29 61 0
-320 -30 62 0
-320 -73 0
-321 22 0
-321 -31 0
-321 -15 -28 -19 0
-321 -15 -29 -20 0
-321 -15 -30 -21 0
-321 -23 0
-321 -24 0
-321 -27 0
-321 -28 -4 -8 0
-321 -28 -4 -9 0
-321 -28 -4 -10 0
-321 -29 -4 -9 0
-321 -29 -4 -10 0
-321 -30 -4 -10 0
-321 -28 -34 -38 0
-321 -28 -34 -39 0
-321 -28 -34 -40 0
-321 -29 -34 -39 0
-321 -29 -34 -40 0
-321 -30 -34 -40 0
-321 -28 -35 -38 0
-321 -28 -35 -39 0
-321 -28 -35 -40 0
-321 -29 -35 -39 0
-321 -29 -35 -40 0
-321 -30 -35 -40 0
-321 -28 -36 -38 0
-321 -28 -36 -39 0
-321 -28 -36 -40 0
-321 -29 -36 -39 0
-321 -29 -36 -40 0
-321 -30 -36 -40 0
-321 56 0
-321 -28 60 0
-321 -29 61 0
-321 -30 62 0
-321 -73 0
-322 22 0
-322 -31 0
-322 -16 -28 -19 0
-322 -16 -29 -20 0
-322 -16 -30 -21 0
-322 -23 0
-322 -24 0
-322 -25 0
-322 -28 -5 -8 0
-322 -28 -5 -9 0
-322 -28 -5 -10 0
-322 -29 -5 -9 0
-322 -29 -5 -10 0
-322 -30 -5 -10 0
-322 -28 -35 -38 0
-322 -28 -35 -39 0
-322 -28 -35 -40 0
-322 -29 -35 -39 0
-322 -29 -35 -40 0
-322 -30 -35 -40 0
-322 -28 -36 -38 0
-322 -28 -36 -39 0
-322 -28 -36 -40 0
-322 -29 -36 -39 0
-322 -29 -36 -40 0
-322 -30 -36 -40 0
-322 57 0
-322 -28 60 0
-322 -29 61 0
-322 -30 62 0
-322 -73 0
-323 22 0
-323 -31 0
-323 -17 -28 -19 0
-323 -17 -29 -20 0
-323 -17 -30 -21 0
-323 -23 0
-323 -24 0
-323 -25 0
-323 -26 0
-323 -28 -6 -8 0
-323 -28 -6 -9 0
-323 -28 -6 -10 0
-323 -29 -6 -9 0
-323 -29 -6 -10 0
-323 -30 -6 -10 0
-323 -28 -36 -38 0
-323 -28 -36 -39 0
-323 -28 -36 -40 0
-323 -29 -36 -39 0
-323 -29 -36 -40 0
-323 -30 -36 -40 0
-323 58 0
-323 -28 60 0
-323 -29 61 0
-323 -30 62 0
-323 -73 0
-324 22 0
-324 -40 0
-324 -12 -37 -19 0
-324 -12 -38 -20 0
-324 -12 -39 -21 0
-324 -34 0
-324 -35 0
-324 -36 0
-324 -37 -1 -8 0
-324 -37 -1 -9 0
-324 -37 -1 -10 0
-324 -38 -1 -9 0
-324 -38 -1 -10 0
-324 -39 -1 -10 0
-324 -37 -23 -29 0
-324 -37 -23 -30 0
-324 -37 -23 -31 0
-324 -38 -23 -30 0
-324 -38 -23 -31 0
-324 -39 -23 -31 0
-324 53 0
-324 -37 60 0
-324 -38 61 0
-324 -39 62 0
-324 -82 0
-325 22 0
-325 -40 0
-325 -13 -37 -19 0
-325 -13 -38 -20 0
-325 -13 -39 -21 0
-325 -35 0
-325 -36 0
-325 -37 -2 -8 0
-325 -37 -2 -9 0
-325 -37 -2 -10 0
-325 -38 -2 -9 0
-325 -38 -2 -10 0
-325 -39 -2 -10 0
-325 -37 -23 -29 0
-325 -37 -23 -30 0
-325 -37 -23 -31 0
-325 -38 -23 -30 0
-325 -38 -23 -31 0
-325 -39 -23 -31 0
-325 -37 -24 -29 0
-325 -37 -24 -30 0
-325 -37 -24 -31 0
-325 -38 -24 -30 0
-325 -38 -24 -31 0
-325 -39 -24 -31 0
-325 54 0
-325 -37 60 0
-325 -38 61 0
-325 -39 62 0
-325 -82 0
-326 22 0
-326 -40 0
-326 -14 -37 -19 0
-326 -14 -38 -20 0
-326 -14 -39 -21 0
-326 -36 0
-326 -37 -3 -8 0
-326 -37 -3 -9 0
-326 -37 -3 -10 0
-326 -38 -3 -9 0
-326 -38 -3 -10 0
-326 -39 -3 -10 0
-326 -37 -24 -29 0
-326 -37 -24 -30 0
-326 -37 -24 -31 0
-326 -38 -24 -30 0
-326 -38 -24 -31 0
-326 -39 -24 -31 0
-326 -37 -25 -29 0
-326 -37 -25 -30 0
-326 -37 -25 -31 0
-326 -38 -25 -30 0
-326 -38 -25 -31 0
-326 -39 -25 -31 0
-326 55 0
-326 -37 60 0
-326 -38 61 0
-326 -39 62 0
-326 -82 0
-327 22 0
-327 -40 0
-327 -15 -37 -19 0
-327 -15 -38 -20 0
-327 -15 -39 -21 0
-327 -33 0
-327 -37 -4 -8 0
-327 -37 -4 -9 0
-327 -37 -4 -10 0
-327 -38 -4 -9 0
-327 -38 -4 -10 0
-327 -39 -4 -10 0
-327 -37 -25 -29 0
-327 -37 -25 -30 0
-327 -37 -25 -31 0
-327 -38 -25 -30 0
-327 -38 -25 -31 0
-327 -39 -25 -31 0
-327 -37 -26 -29 0
-327 -37 -26 -30 0
-327 -37 -26 -31 0
-327 -38 -26 -30 0
-327 -38 -26 -31 0
-327 -39 -26 -31 0
-327 56 0
-327 -37 60 0
-327 -38 61 0
-327 -39 62 0
-327 -82 0
-328 22 0
-328 -40 0
-328 -16 -37 -19 0
-328 -16 -38 -20 0
-328 -16 -39 -21 0
-328 -33 0
-328 -34 0
-328 -37 -5 -8 0
-328 -37 -5 -9 0
-328 -37 -5 -10 0
-328 -38 -5 -9 0
-328 -38 -5 -10 0
-328 -39 -5 -10 0
-328 -37 -26 -29 0
-328 -37 -26 -30 0
-328 -37 -26 -31 0
-328 -38 -26 -30 0
-328 -38 -26 -31 0
-328 -39 -26 -31 0
-328 -37 -27 -29 0
-328 -37 -27 -30 0
-328 -37 -27 -31 0
-328 -38 -27 -30 0
-328 -38 -27 -31 0
-328 -39 -27 -31 0
-328 57 0
-328 -37 60 0
-328 -38 61 0
-328 -39 62 0
-328 -82 0
-329 22 0
-329 -40 0
-329 -17 -37 -19 0
-329 -17 -38 -20 0
-329 -17 -39 -21 0
-329 -33 0
-329 -34 0
-329 -35 0
-329 -37 -6 -8 0
-329 -37 -6 -9 0
-329 -37 -6 -10 0
-329 -38 -6 -9 0
-329 -38 -6 -10 0
-329 -39 -6 -10 0
-329 -37 -27 -29 0
-329 -37 -27 -30 0
-329 -37 -27 -31 0
-329 -38 -27 -30 0
-329 -38 -27 -31 0
-329 -39 -27 -31 0
-329 58 0
-329 -37 60 0
-329 -38 61 0
-329 -39 62 0
-329 -82 0
-330 22 0
-330 -12 -18 0
-330 -1 -7 0
-330 -1 -8 0
-330 -1 -9 0
-330 -1 -10 0
-330 -23 -28 0
-330 -23 -29 0
-330 -23 -30 0
-330 -23 -31 0
-330 -33 -37 0
-330 -33 -38 0
-330 -33 -39 0
-330 -33 -40 0
-330 53 0
-330 59 0
-331 22 0
-331 -13 -18 0
-331 -2 -7 0
-331 -2 -8 0
-331 -2 -9 0
-331 -2 -10 0
-331 -23 -28 0
-331 -23 -29 0
-331 -23 -30 0
-331 -23 -31 0
-331 -24 -28 0
-331 -24 -29 0
-331 -24 -30 0
-331 -24 -31 0
-331 -33 -37 0
-331 -33 -38 0
-331 -33 -39 0
-331 -33 -40 0
-331 -34 -37 0
-331 -34 -38 0
-331 -34 -39 0
-331 -34 -40 0
-331 54 0
-331 59 0
-332 22 0
-332 -14 -18 0
-332 -3 -7 0
-332 -3 -8 0
-332 -3 -9 0
-332 -3 -10 0
-332 -24 -28 0
-332 -24 -29 0
-332 -24 -30 0
-332 -24 -31 0
-332 -25 -28 0
-332 -25 -29 0
-332 -25 -30 0
-332 -25 -31 0
-332 -33 -37 0
-332 -33 -38 0
-332 -33 -39 0
-332 -33 -40 0
-332 -34 -37 0
-332 -34 -38 0
-332 -34 -39 0
-332 -34 -40 0
-332 -35 -37 0
-332 -35 -38 0
-332 -35 -39 0
-332 -35 -40 0
-332 55 0
-332 59 0
-333 22 0
-333 -15 -18 0
-333 -4 -7 0
-333 -4 -8 0
-333 -4 -9 0
-333 -4 -10 0
-333 -25 -28 0
-333 -25 -29 0
-333 -25 -30 0
-333 -25 -31 0
-333 -26 -28 0
-333 -26 -29 0
-333 -26 -30 0
-333 -26 -31 0
-333 -34 -37 0
-333 -34 -38 0
-333 -34 -39 0
-333 -34 -40 0
-333 -35 -37 0
-333 -35 -38 0
-333 -35 -39 0
-333 -35 -40 0
-333 -36 -37 0
-333 -36 -38 0
-333 -36 -39 0
-333 -36 -40 0
-333 56 0
-333 59 0
-334 22 0
-334 -16 -18 0
-334 -5 -7 0
-334 -5 -8 0
-334 -5 -9 0
-334 -5 -10 0
-334 -26 -28 0
-334 -26 -29 0
-334 -26 -30 0
-334 -26 -31 0
-334 -27 -28 0
-334 -27 -29 0
-334 -27 -30 0
-334 -27 -31 0
-334 -35 -37 0
-334 -35 -38 0
-334 -35 -39 0
-334 -35 -40 0
-334 -36 -37 0
-334 -36 -38 0
-334 -36 -39 0
-334 -36 -40 0
-334 57 0
-334 59 0
-335 22 0
-335 -17 -18 0
-335 -6 -7 0
-335 -6 -8 0
-335 -6 -9 0
-335 -6 -10 0
-335 -27 -28 0
-335 -27 -29 0
-335 -27 -30 0
-335 -27 -31 0
-335 -36 -37 0
-335 -36 -38 0
-335 -36 -39 0
-335 -36 -40 0
-335 58 0
-335 59 0
-336 32 0
-336 -10 0
-336 -23 -7 -29 0
-336 -23 -8 -30 0
-336 -23 -9 -31 0
-336 -3 0
-336 -4 0
-336 -5 0
-336 -6 0
-336 -7 -12 -19 0
-336 -7 -12 -20 0
-336 -7 -12 -21 0
-336 -8 -12 -20 0
-336 -8 -12 -21 0
-336 -9 -12 -21 0
-336 -7 -13 -19 0
-336 -7 -13 -20 0
-336 -7 -13 -21 0
-336 -8 -13 -20 0
-336 -8 -13 -21 0
-336 -9 -13 -21 0
-336 -7 -33 -38 0
-336 -7 -33 -39 0
-336 -7 -33 -40 0
-336 -8 -33 -39 0
-336 -8 -33 -40 0
-336 -9 -33 -40 0
-336 -7 -34 -38 0
-336 -7 -34 -39 0
-336 -7 -34 -40 0
-336 -8 -34 -39 0
-336 -8 -34 -40 0
-336 -9 -34 -40 0
-336 64 0
-336 -7 70 0
-336 -8 71 0
-336 -9 72 0
-336 -52 0
-337 32 0
-337 -10 0
-337 -24 -7 -29 0
-337 -24 -8 -30 0
-337 -24 -9 -31 0
-337 -1 0
-337 -4 0
-337 -5 0
-337 -6 0
-337 -7 -13 -19 0
-337 -7 -13 -20 0
-337 -7 -13 -21 0
-337 -8 -13 -20 0
-337 -8 -13 -21 0
-337 -9 -13 -21 0
-337 -7 -14 -19 0
-337 -7 -14 -20 0
-337 -7 -14 -21 0
-337 -8 -14 -20 0
-337 -8 -14 -21 0
-337 -9 -14 -21 0
-337 -7 -33 -38 0
-337 -7 -33 -39 0
-337 -7 -33 -40 0
-337 -8 -33 -39 0
-337 -8 -33 -40 0
-337 -9 -33 -40 0
-337 -7 -34 -38 0
-337 -7 -34 -39 0
-337 -7 -34 -40 0
-337 -8 -34 -39 0
-337 -8 -34 -40 0
-337 -9 -34 -40 0
-337 -7 -35 -38 0
-337 -7 -35 -39 0
-337 -7 -35 -40 0
-337 -8 -35 -39 0
-337 -8 -35 -40 0
-337 -9 -35 -40 0
-337 65 0
-337 -7 70 0
-337 -8 71 0
-337 -9 72 0
-337 -52 0
-338 32 0
-338 -10 0
-338 -25 -7 -29 0
-338 -25 -8 -30 0
-338 -25 -9 -31 0
-338 -1 0
-338 -2 0
-338 -5 0
-338 -6 0
-338 -7 -14 -19 0
-338 -7 -14 -20 0
-338 -7 -14 -21 0
-338 -8 -14 -20 0
-338 -8 -14 -21 0
-338 -9 -14 -21 0
-338 -7 -15 -19 0
-338 -7 -15 -20 0
-338 -7 -15 -21 0
-338 -8 -15 -20 0
-338 -8 -15 -21 0
-338 -9 -15 -21 0
-338 -7 -33 -38 0
-338 -7 -33 -39 0
-338 -7 -33 -40 0
-338 -8 -33 -39 0
-338 -8 -33 -40 0
-338 -9 -33 -40 0
-338 -7 -34 -38 0
-338 -7 -34 -39 0
-338 -7 -34 -40 0
-338 -8 -34 -39 0
-338 -8 -34 -40 0
-338 -9 -34 -40 0
-338 -7 -35 -38 0
-338 -7 -35 -39 0
-338 -7 -35 -40 0
-338 -8 -35 -39 0
-338 -8 -35 -40 0
-338 -9 -35 -40 0
-338 -7 -36 -38 0
-338 -7 -36 -39 0
-338 -7 -36 -40 0
-338 -8 -36 -39 0
-338 -8 -36 -40 0
-338 -9 -36 -40 0
-338 66 0
-338 -7 70 0
-338 -8 71 0
-338 -9 72 0
-338 -52 0
-339 32 0
-339 -10 0
-339 -26 -7 -29 0
-339 -26 -8 -30 0
-339 -26 -9 -31 0
-339 -1 0
-339 -2 0
-339 -3 0
-339 -6 0
-339 -7 -15 -19 0
-339 -7 -15 -20 0
-339 -7 -15 -21 0
-339 -8 -15 -20 0
-339 -8 -15 -21 0
-339 -9 -15 -21 0
-339 -7 -16 -19 0
-339 -7 -16 -20 0
-339 -7 -16 -21 0
-339 -8 -16 -20 0
-339 -8 -16 -21 0
-339 -9 -16 -21 0
-339 -7 -34 -38 0
-339 -7 -34 -39 0
-339 -7 -34 -40 0
-339 -8 -34 -39 0
-339 -8 -34 -40 0
-339 -9 -34 -40 0
-339 -7 -35 -38 0
-339 -7 -35 -39 0
-339 -7 -35 -40 0
-339 -8 -35 -39 0
-339 -8 -35 -40 0
-339 -9 -35 -40 0
-339 -7 -36 -38 0
-339 -7 -36 -39 0
-339 -7 -36 -40 0
-339 -8 -36 -39 0
-339 -8 -36 -40 0
-339 -9 -36 -40 0
-339 67 0
-339 -7 70 0
-339 -8 71 0
-339 -9 72 0
-339 -52 0
-340 32 0
-340 -10 0
-340 -27 -7 -29 0
-340 -27 -8 -30 0
-340 -27 -9 -31 0
-340 -1 0
-340 -2 0
-340 -3 0
-340 -4 0
-340 -7 -16 -19 0
-340 -7 -16 -20 0
-340 -7 -16 -21 0
-340 -8 -16 -20 0
-340 -8 -16 -21 0
-340 -9 -16 -21 0
-340 -7 -17 -19 0
-340 -7 -17 -20 0
-340 -7 -17 -21 0
-340 -8 -17 -20 0
-340 -8 -17 -21 0
-340 -9 -17 -21 0
-340 -7 -35 -38 0
-340 -7 -35 -39 0
-340 -7 -35 -40 0
-340 -8 -35 -39 0
-340 -8 -35 -40 0
-340 -9 -35 -40 0
-340 -7 -36 -38 0
-340 -7 -36 -39 0
-340 -7 -36 -40 0
-340 -8 -36 -39 0
-340 -8 -36 -40 0
-340 -9 -36 -40 0
-340 68 0
-340 -7 70 0
-340 -8 71 0
-340 -9 72 0
-340 -52 0
-341 32 0
-341 -21 0
-341 -23 -18 -29 0
-341 -23 -19 -30 0
-341 -23 -20 -31 0
-341 -14 0
-341 -15 0
-341 -16 0
-341 -17 0
-341 -18 -1 -8 0
-341 -18 -1 -9 0
-341 -18 -1 -10 0
-341 -19 -1 -9 0
-341 -19 -1 -10 0
-341 -20 -1 -10 0
-341 -18 -2 -8 0
-341 -18 -2 -9 0
-341 -18 -2 -10 0
-341 -19 -2 -9 0
-341 -19 -2 -10 0
-341 -20 -2 -10 0
-341 -18 -33 -38 0
-341 -18 -33 -39 0
-341 -18 -33 -40 0
-341 -19 -33 -39 0
-341 -19 -33 -40 0
-341 -20 -33 -40 0
-341 -18 -34 -38 0
-341 -18 -34 -39 0
-341 -18 -34 -40 0
-341 -19 -34 -39 0
-341 -19 -34 -40 0
-341 -20 -34 -40 0
-341 64 0
-341 -18 70 0
-341 -19 71 0
-341 -20 72 0
-341 -63 0
-342 32 0
-342 -21 0
-342 -24 -18 -29 0
-342 -24 -19 -30 0
-342 -24 -20 -31 0
-342 -12 0
-342 -15 0
-342 -16 0
-342 -17 0
-342 -18 -2 -8 0
-342 -18 -2 -9 0
-342 -18 -2 -10 0
-342 -19 -2 -9 0
-342 -19 -2 -10 0
-342 -20 -2 -10 0
-342 -18 -3 -8 0
-342 -18 -3 -9 0
-342 -18 -3 -10 0
-342 -19 -3 -9 0
-342 -19 -3 -10 0
-342 -20 -3 -10 0
-342 -18 -33 -38 0
-342 -18 -33 -39 0
-342 -18 -33 -40 0
-342 -19 -33 -39 0
-342 -19 -33 -40 0
-342 -20 -33 -40 0
-342 -18 -34 -38 0
-342 -18 -34 -39 0
-342 -18 -34 -40 0
-342 -19 -34 -39 0
-342 -19 -34 -40 0
-342 -20 -34 -40 0
-342 -18 -35 -38 0
-342 -18 -35 -39 0
-342 -18 -35 -40 0
-342 -19 -35 -39 0
-342 -19 -35 -40 0
-342 -20 -35 -40 0
-342 65 0
-342 -18 70 0
-342 -19 71 0
-342 -20 72 0
-342 -63 0
-343 32 0
-343 -21 0
-343 -25 -18 -29 0
-343 -25 -19 -30 0
-343 -25 -20 -31 0
-343 -12 0
-343 -13 0
-343 -16 0
-343 -17 0
-343 -18 -3 -8 0
-343 -18 -3 -9 0
-343 -18 -3 -10 0
-343 -19 -3 -9 0
-343 -19 -3 -10 0
-343 -20 -3 -10 0
-343 -18 -4 -8 0
-343 -18 -4 -9 0
-343 -18 -4 -10 0
-343 -19 -4 -9 0
-343 -19 -4 -10 0
-343 -20 -4 -10 0
-343 -18 -33 -38 0
-343 -18 -33 -39 0
-343 -18 -33 -40 0
-343 -19 -33 -39 0
-343 -19 -33 -40 0
-343 -20 -33 -40 0
-343 -18 -34 -38 0
-343 -18 -34 -39 0
-343 -18 -34 -40 0
-343 -19 -34 -39 0
-343 -19 -34 -40 0
-343 -20 -34 -40 0
-343 -18 -35 -38 0
-343 -18 -35 -39 0
-343 -18 -35 -40 0
-343 -19 -35 -39 0
-343 -19 -35 -40 0
-343 -20 -35 -40 0
-343 -18 -36 -38 0
-343 -18 -36 -39 0
-343 -18 -36 -40 0
-343 -19 -36 -39 0
-343 -19 -36 -40 0
-343 -20 -36 -40 0
-343 66 0
-343 -18 70 0
-343 -19 71 0
-343 -20 72 0
-343 -63 0
-344 32 0
-344 -21 0
-344 -26 -18 -29 0
-344 -26 -19 -30 0
-344 -26 -20 -31 0
-344 -12 0
-344 -13 0
-344 -14 0
-344 -17 0
-344 -18 -4 -8 0
-344 -18 -4 -9 0
-344 -18 -4 -10 0
-344 -19 -4 -9 0
-344 -19 -4 -10 0
-344 -20 -4 -10 0
-344 -18 -5 -8 0
-344 -18 -5 -9 0
-344 -18 -5 -10 0
-344 -19 -5 -9 0
-344 -19 -5 -10 0
-344 -20 -5 -10 0
-344 -18 -34 -38 0
-344 -18 -34 -39 0
-344 -18 -34 -40 0
-344 -19 -34 -39 0
-344 -19 -34 -40 0
-344 -20 -34 -40 0
-344 -18 -35 -38 0
-344 -18 -35 -39 0
-344 -18 -35 -40 0
-344 -19 -35 -39 0
-344 -19 -35 -40 0
-344 -20 -35 -40 0
-344 -18 -36 -38 0
-344 -18 -36 -39 0
-344 -18 -36 -40 0
-344 -19 -36 -39 0
-344 -19 -36 -40 0
-344 -20 -36 -40 0
-344 67 0
-344 -18 70 0
-344 -19 71 0
-344 -20 72 0
-344 -63 0
-345 32 0
-345 -21 0
-345 -27 -18 -29 0
-345 -27 -19 -30 0
-345 -27 -20 -31 0
-345 -12 0
-345 -13 0
-345 -14 0
-345 -15 0
-345 -18 -5 -8 0
-345 -18 -5 -9 0
-345 -18 -5 -10 0
-345 -19 -5 -9 0
-345 -19 -5 -10 0
-345 -20 -5 -10 0
-345 -18 -6 -8 0
-345 -18 -6 -9 0
-345 -18 -6 -10 0
-345 -19 -6 -9 0
-345 -19 -6 -10 0
-345 -20 -6 -10 0
-345 -18 -35 -38 0
-345 -18 -35 -39 0
-345 -18 -35 -40 0
-345 -19 -35 -39 0
-345 -19 -35 -40 0
-345 -20 -35 -40 0
-345 -18 -36 -38 0
-345 -18 -36 -39 0
-345 -18 -36 -40 0
-345 -19 -36 -39 0
-345 -19 -36 -40 0
-345 -20 -36 -40 0
-345 68 0
-345 -18 70 0
-345 -19 71 0
-345 -20 72 0
-345 -63 0
-346 32 0
-346 -40 0
-346 -23 -37 -29 0
-346 -23 -38 -30 0
-346 -23 -39 -31 0
-346 -35 0
-346 -36 0
-346 -37 -1 -8 0
-346 -37 -1 -9 0
-346 -37 -1 -10 0
-346 -38 -1 -9 0
-346 -38 -1 -10 0
-346 -39 -1 -10 0
-346 -37 -2 -8 0
-346 -37 -2 -9 0
-346 -37 -2 -10 0
-346 -38 -2 -9 0
-346 -38 -2 -10 0
-346 -39 -2 -10 0
-346 -37 -12 -19 0
-346 -37 -12 -20 0
-346 -37 -12 -21 0
-346 -38 -12 -20 0
-346 -38 -12 -21 0
-346 -39 -12 -21 0
-346 -37 -13 -19 0
-346 -37 -13 -20 0
-346 -37 -13 -21 0
-346 -38 -13 -20 0
-346 -38 -13 -21 0
-346 -39 -13 -21 0
-346 64 0
-346 -37 70 0
-346 -38 71 0
-346 -39 72 0
-346 -82 0
-347 32 0
-347 -40 0
-347 -24 -37 -29 0
-347 -24 -38 -30 0
-347 -24 -39 -31 0
-347 -36 0
-347 -37 -2 -8 0
-347 -37 -2 -9 0
-347 -37 -2 -10 0
-347 -38 -2 -9 0
-347 -38 -2 -10 0
-347 -39 -2 -10 0
-347 -37 -3 -8 0
-347 -37 -3 -9 0
-347 -37 -3 -10 0
-347 -38 -3 -9 0
-347 -38 -3 -10 0
-347 -39 -3 -10 0
-347 -37 -13 -19 0
-347 -37 -13 -20 0
-347 -37 -13 -21 0
-347 -38 -13 -20 0
-347 -38 -13 -21 0
-347 -39 -13 -21 0
-347 -37 -14 -19 0
-347 -37 -14 -20 0
-347 -37 -14 -21 0
-347 -38 -14 -20 0
-347 -38 -14 -21 0
-347 -39 -14 -21 0
-347 65 0
-347 -37 70 0
-347 -38 71 0
-347 -39 72 0
-347 -82 0
-348 32 0
-348 -40 0
-348 -25 -37 -29 0
-348 -25 -38 -30 0
-348 -25 -39 -31 0
-348 -37 -3 -8 0
-348 -37 -3 -9 0
-348 -37 -3 -10 0
-348 -38 -3 -9 0
-348 -38 -3 -10 0
-348 -39 -3 -10 0
-348 -37 -4 -8 0
-348 -37 -4 -9 0
-348 -37 -4 -10 0
-348 -38 -4 -9 0
-348 -38 -4 -10 0
-348 -39 -4 -10 0
-348 -37 -14 -19 0
-348 -37 -14 -20 0
-348 -37 -14 -21 0
-348 -38 -14 -20 0
-348 -38 -14 -21 0
-348 -39 -14 -21 0
-348 -37 -15 -19 0
-348 -37 -15 -20 0
-348 -37 -15 -21 0
-348 -38 -15 -20 0
-348 -38 -15 -21 0
-348 -39 -15 -21 0
-348 66 0
-348 -37 70 0
-348 -38 71 0
-348 -39 72 0
-348 -82 0
-349 32 0
-349 -40 0
-349 -26 -37 -29 0
-349 -26 -38 -30 0
-349 -26 -39 -31 0
-349 -33 0
-349 -37 -4 -8 0
-349 -37 -4 -9 0
-349 -37 -4 -10 0
-349 -38 -4 -9 0
-349 -38 -4 -10 0
-349 -39 -4 -10 0
-349 -37 -5 -8 0
-349 -37 -5 -9 0
-349 -37 -5 -10 0
-349 -38 -5 -9 0
-349 -38 -5 -10 0
-349 -39 -5 -10 0
-349 -37 -15 -19 0
-349 -37 -15 -20 0
-349 -37 -15 -21 0
-349 -38 -15 -20 0
-349 -38 -15 -21 0
-349 -39 -15 -21 0
-349 -37 -16 -19 0
-349 -37 -16 -20 0
-349 -37 -16 -21 0
-349 -38 -16 -20 0
-349 -38 -16 -21 0
-349 -39 -16 -21 0
-349 67 0
-349 -37 70 0
-349 -38 71 0
-349 -39 72 0
-349 -82 0
-350 32 0
-350 -40 0
-350 -27 -37 -29 0
-350 -27 -38 -30 0
-350 -27 -39 -31 0
-350 -33 0
-350 -34 0
-350 -37 -5 -8 0
-350 -37 -5 -9 0
-350 -37 -5 -10 0
-350 -38 -5 -9 0
-350 -38 -5 -10 0
-350 -39 -5 -10 0
-350 -37 -6 -8 0
-350 -37 -6 -9 0
-350 -37 -6 -10 0
-350 -38 -6 -9 0
-350 -38 -6 -10 0
-350 -39 -6 -10 0
-350 -37 -16 -19 0
-350 -37 -16 -20 0
-350 -37 -16 -21 0
-350 -38 -16 -20 0
-350 -38 -16 -21 0
-350 -39 -16 -21 0
-350 -37 -17 -19 0
-350 -37 -17 -20 0
-350 -37 -17 -21 0
-350 -38 -17 -20 0
-350 -38 -17 -21 0
-350 -39 -17 -21 0
-350 68 0
-350 -37 70 0
-350 -38 71 0
-350 -39 72 0
-350 -82 0
-351 32 0
-351 -23 -28 0
-351 -1 -7 0
-351 -1 -8 0
-351 -1 -9 0
-351 -1 -10 0
-351 -2 -7 0
-351 -2 -8 0
-351 -2 -9 0
-351 -2 -10 0
-351 -12 -18 0
-351 -12 -19 0
-351 -12 -20 0
-351 -12 -21 0
-351 -13 -18 0
-351 -13 -19 0
-351 -13 -20 0
-351 -13 -21 0
-351 -33 -37 0
-351 -33 -38 0
-351 -33 -39 0
-351 -33 -40 0
-351 -34 -37 0
-351 -34 -38 0
-351 -34 -39 0
-351 -34 -40 0
-351 64 0
-351 69 0
-352 32 0
-352 -24 -28 0
-352 -2 -7 0
-352 -2 -8 0
-352 -2 -9 0
-352 -2 -10 0
-352 -3 -7 0
-352 -3 -8 0
-352 -3 -9 0
-352 -3 -10 0
-352 -13 -18 0
-352 -13 -19 0
-352 -13 -20 0
-352 -13 -21 0
-352 -14 -18 0
-352 -14 -19 0
-352 -14 -20 0
-352 -14 -21 0
-352 -33 -37 0
-352 -33 -38 0
-352 -33 -39 0
-352 -33 -40 0
-352 -34 -37 0
-352 -34 -38 0
-352 -34 -39 0
-352 -34 -40 0
-352 -35 -37 0
-352 -35 -38 0
-352 -35 -39 0
-352 -35 -40 0
-352 65 0
-352 69 0
-353 32 0
-353 -25 -28 0
-353 -3 -7 0
-353 -3 -8 0
-353 -3 -9 0
-353 -3 -10 0
-353 -4 -7 0
-353 -4 -8 0
-353 -4 -9 0
-353 -4 -10 0
-353 -14 -18 0
-353 -14 -19 0
-353 -14 -20 0
-353 -14 -21 0
-353 -15 -18 0
-353 -15 -19 0
-353 -15 -20 0
-353 -15 -21 0
-353 -33 -37 0
-353 -33 -38 0
-353 -33 -39 0
-353 -33 -40 0
-353 -34 -37 0
-353 -34 -38 0
-353 -34 -39 0
-353 -34 -40 0
-353 -35 -37 0
-353 -35 -38 0
-353 -35 -39 0
-353 -35 -40 0
-353 -36 -37 0
-353 -36 -38 0
-353 -36 -39 0
-353 -36 -40 0
-353 66 0
-353 69 0
-354 32 0
-354 -26 -28 0
-354 -4 -7 0
-354 -4 -8 0
-354 -4 -9 0
-354 -4 -10 0
-354 -5 -7 0
-354 -5 -8 0
-354 -5 -9 0
-354 -5 -10 0
-354 -15 -18 0
-354 -15 -19 0
-354 -15 -20 0
-354 -15 -21 0
-354 -16 -18 0
-354 -16 -19 0
-354 -16 -20 0
-354 -16 -21 0
-354 -34 -37 0
-354 -34 -38 0
-354 -34 -39 0
-354 -34 -40 0
-354 -35 -37 0
-354 -35 -38 0
-354 -35 -39 0
-354 -35 -40 0
-354 -36 -37 0
-354 -36 -38 0
-354 -36 -39 0
-354 -36 -40 0
-354 67 0
-354 69 0
-355 32 0
-355 -27 -28 0
-355 -5 -7 0
-355 -5 -8 0
-355 -5 -9 0
-355 -5 -10 0
-355 -6 -7 0
-355 -6 -8 0
-355 -6 -9 0
-355 -6 -10 0
-355 -16 -18 0
-355 -16 -19 0
-355 -16 -20 0
-355 -16 -21 0
-355 -17 -18 0
-355 -17 -19 0
-355 -17 -20 0
-355 -17 -21 0
-355 -35 -37 0
-355 -35 -38 0
-355 -35 -39 0
-355 -35 -40 0
-355 -36 -37 0
-355 -36 -38 0
-355 -36 -39 0
-355 -36 -40 0
-355 68 0
-355 69 0
-356 41 0
-356 -10 0
-356 -33 -7 -38 0
-356 -33 -8 -39 0
-356 -33 -9 -40 0
-356 -4 0
-356 -5 0
-356 -6 0
-356 -7 -12 -19 0
-356 -7 -12 -20 0
-356 -7 -12 -21 0
-356 -8 -12 -20 0
-356 -8 -12 -21 0
-356 -9 -12 -21 0
-356 -7 -13 -19 0
-356 -7 -13 -20 0
-356 -7 -13 -21 0
-356 -8 -13 -20 0
-356 -8 -13 -21 0
-356 -9 -13 -21 0
-356 -7 -14 -19 0
-356 -7 -14 -20 0
-356 -7 -14 -21 0
-356 -8 -14 -20 0
-356 -8 -14 -21 0
-356 -9 -14 -21 0
-356 -7 -23 -29 0
-356 -7 -23 -30 0
-356 -7 -23 -31 0
-356 -8 -23 -30 0
-356 -8 -23 -31 0
-356 -9 -23 -31 0
-356 -7 -24 -29 0
-356 -7 -24 -30 0
-356 -7 -24 -31 0
-356 -8 -24 -30 0
-356 -8 -24 -31 0
-356 -9 -24 -31 0
-356 -7 -25 -29 0
-356 -7 -25 -30 0
-356 -7 -25 -31 0
-356 -8 -25 -30 0
-356 -8 -25 -31 0
-356 -9 -25 -31 0
-356 74 0
-356 -7 79 0
-356 -8 80 0
-356 -9 81 0
-356 -52 0
-357 41 0
-357 -10 0
-357 -34 -7 -38 0
-357 -34 -8 -39 0
-357 -34 -9 -40 0
-357 -1 0
-357 -5 0
-357 -6 0
-357 -7 -13 -19 0
-357 -7 -13 -20 0
-357 -7 -13 -21 0
-357 -8 -13 -20 0
-357 -8 -13 -21 0
-357 -9 -13 -21 0
-357 -7 -14 -19 0
-357 -7 -14 -20 0
-357 -7 -14 -21 0
-357 -8 -14 -20 0
-357 -8 -14 -21 0
-357 -9 -14 -21 0
-357 -7 -15 -19 0
-357 -7 -15 -20 0
-357 -7 -15 -21 0
-357 -8 -15 -20 0
-357 -8 -15 -21 0
-357 -9 -15 -21 0
-357 -7 -23 -29 0
-357 -7 -23 -30 0
-357 -7 -23 -31 0
-357 -8 -23 -30 0
-357 -8 -23 -31 0
-357 -9 -23 -31 0
-357 -7 -24 -29 0
-357 -7 -24 -30 0
-357 -7 -24 -31 0
-357 -8 -24 -30 0
-357 -8 -24 -31 0
-357 -9 -24 -31 0
-357 -7 -25 -29 0
-357 -7 -25 -30 0
-357 -7 -25 -31 0
-357 -8 -25 -30 0
-357 -8 -25 -31 0
-357 -9 -25 -31 0
-357 -7 -26 -29 0
-357 -7 -26 -30 0
-357 -7 -26 -31 0
-357 -8 -26 -30 0
-357 -8 -26 -31 0
-357 -9 -26 -31 0
-357 75 0
-357 -7 79 0
-357 -8 80 0
-357 -9 81 0
-357 -52 0
-358 41 0
-358 -10 0
-358 -35 -7 -38 0
-358 -35 -8 -39 0
-358 -35 -9 -40 0
-358 -1 0
-358 -2 0
-358 -6 0
-358 -7 -14 -19 0
-358 -7 -14 -20 0
-358 -7 -14 -21 0
-358 -8 -14 -20 0
-358 -8 -14 -21 0
-358 -9 -14 -21 0
-358 -7 -15 -19 0
-358 -7 -15 -20 0
-358 -7 -15 -21 0
-358 -8 -15 -20 0
-358 -8 -15 -21 0
-358 -9 -15 -21 0
-358 -7 -16 -19 0
-358 -7 -16 -20 0
-358 -7 -16 -21 0
-358 -8 -16 -20 0
-358 -8 -16 -21 0
-358 -9 -16 -21 0
-358 -7 -24 -29 0
-358 -7 -24 -30 0
-358 -7 -24 -31 0
-358 -8 -24 -30 0
-358 -8 -24 -31 0
-358 -9 -24 -31 0
-358 -7 -25 -29 0
-358 -7 -25 -30 0
-358 -7 -25 -31 0
-358 -8 -25 -30 0
-358 -8 -25 -31 0
-358 -9 -25 -31 0
-358 -7 -26 -29 0
-358 -7 -26 -30 0
-358 -7 -26 -31 0
-358 -8 -26 -30 0
-358 -8 -26 -31 0
-358 -9 -26 -31 0
-358 -7 -27 -29 0
-358 -7 -27 -30 0
-358 -7 -27 -31 0
-358 -8 -27 -30 0
-358 -8 -27 -31 0
-358 -9 -27 -31 0
-358 76 0
-358 -7 79 0
-358 -8 80 0
-358 -9 81 0
-358 -52 0
-359 41 0
-359 -10 0
-359 -36 -7 -38 0
-359 -36 -8 -39 0
-359 -36 -9 -40 0
-359 -1 0
-359 -2 0
-359 -3 0
-359 -7 -15 -19 0
-359 -7 -15 -20 0
-359 -7 -15 -21 0
-359 -8 -15 -20 0
-359 -8 -15 -21 0
-359 -9 -15 -21 0
-359 -7 -16 -19 0
-359 -7 -16 -20 0
-359 -7 -16 -21 0
-359 -8 -16 -20 0
-359 -8 -16 -21 0
-359 -9 -16 -21 0
-359 -7 -17 -19 0
-359 -7 -17 -20 0
-359 -7 -17 -21 0
-359 -8 -17 -20 0
-359 -8 -17 -21 0
-359 -9 -17 -21 0
-359 -7 -25 -29 0
-359 -7 -25 -30 0
-359 -7 -25 -31 0
-359 -8 -25 -30 0
-359 -8 -25 -31 0
-359 -9 -25 -31 0
-359 -7 -26 -29 0
-359 -7 -26 -30 0
-359 -7 -26 -31 0
-359 -8 -26 -30 0
-359 -8 -26 -31 0
-359 -9 -26 -31 0
-359 -7 -27 -29 0
-359 -7 -27 -30 0
-359 -7 -27 -31 0
-359 -8 -27 -30 0
-359 -8 -27 -31 0
-359 -9 -27 -31 0
-359 77 0
-359 -7 79 0
-359 -8 80 0
-359 -9 81 0
-359 -52 0
-360 41 0
-360 -21 0
-360 -33 -18 -38 0
-360 -33 -19 -39 0
-360 -33 -20 -40 0
-360 -15 0
-360 -16 0
-360 -17 0
-360 -18 -1 -8 0
-360 -18 -1 -9 0
-360 -18 -1 -10 0
-360 -19 -1 -9 0
-360 -19 -1 -10 0
-360 -20 -1 -10 0
-360 -18 -2 -8 0
-360 -18 -2 -9 0
-360 -18 -2 -10 0
-360 -19 -2 -9 0
-360 -19 -2 -10 0
-360 -20 -2 -10 0
-360 -18 -3 -8 0
-360 -18 -3 -9 0
-360 -18 -3 -10 0
-360 -19 -3 -9 0
-360 -19 -3 -10 0
-360 -20 -3 -10 0
-360 -18 -23 -29 0
-360 -18 -23 -30 0
-360 -18 -23 -31 0
-360 -19 -23 -30 0
-360 -19 -23 -31 0
-360 -20 -23 -31 0
-360 -18 -24 -29 0
-360 -18 -24 -30 0
-360 -18 -24 -31 0
-360 -19 -24 -30 0
-360 -19 -24 -31 0
-360 -20 -24 -31 0
-360 -18 -25 -29 0
-360 -18 -25 -30 0
-360 -18 -25 -31 0
-360 -19 -25 -30 0
-360 -19 -25 -31 0
-360 -20 -25 -31 0
-360 74 0
-360 -18 79 0
-360 -19 80 0
-360 -20 81 0
-360 -63 0
-361 41 0
-361 -21 0
-361 -34 -18 -38 0
-361 -34 -19 -39 0
-361 -34 -20 -40 0
-361 -12 0
-361 -16 0
-361 -17 0
-361 -18 -2 -8 0
-361 -18 -2 -9 0
-361 -18 -2 -10 0
-361 -19 -2 -9 0
-361 -19 -2 -10 0
-361 -20 -2 -10 0
-361 -18 -3 -8 0
-361 -18 -3 -9 0
-361 -18 -3 -10 0
-361 -19 -3 -9 0
-361 -19 -3 -10 0
-361 -20 -3 -10 0
-361 -18 -4 -8 0
-361 -18 -4 -9 0
-361 -18 -4 -10 0
-361 -19 -4 -9 0
-361 -19 -4 -10 0
-361 -20 -4 -10 0
-361 -18 -23 -29 0
-361 -18 -23 -30 0
-361 -18 -23 -31 0
-361 -19 -23 -30 0
-361 -19 -23 -31 0
-361 -20 -23 -31 0
-361 -18 -24 -29 0
-361 -18 -24 -30 0
-361 -18 -24 -31 0
-361 -19 -24 -30 0
-361 -19 -24 -31 0
-361 -20 -24 -31 0
-361 -18 -25 -29 0
-361 -18 -25 -30 0
-361 -18 -25 -31 0
-361 -19 -25 -30 0
-361 -19 -25 -31 0
-361 -20 -25 -31 0
-361 -18 -26 -29 0
-361 -18 -26 -30 0
-361 -18 -26 -31 0
-361 -19 -26 -30 0
-361 -19 -26 -31 0
-361 -20 -26 -31 0
-361 75 0
-361 -18 79 0
-361 -19 80 0
-361 -20 81 0
-361 -63 0
-362 41 0
-362 -21 0
-362 -35 -18 -38 0
-362 -35 -19 -39 0
-362 -35 -20 -40 0
-362 -12 0
-362 -13 0
-362 -17 0
-362 -18 -3 -8 0
-362 -18 -3 -9 0
-362 -18 -3 -10 0
-362 -19 -3 -9 0
-362 -19 -3 -10 0
-362 -20 -3 -10 0
-362 -18 -4 -8 0
-362 -18 -4 -9 0
-362 -18 -4 -10 0
-362 -19 -4 -9 0
-362 -19 -4 -10 0
-362 -20 -4 -10 0
-362 -18 -5 -8 0
-362 -18 -5 -9 0
-362 -18 -5 -10 0
-362 -19 -5 -9 0
-362 -19 -5 -10 0
-362 -20 -5 -10 0
-362 -18 -24 -29 0
-362 -18 -24 -30 0
-362 -18 -24 -31 0
-362 -19 -24 -30 0
-362 -19 -24 -31 0
-362 -20 -24 -31 0
-362 -18 -25 -29 0
-362 -18 -25 -30 0
-362 -18 -25 -31 0
-362 -19 -25 -30 0
-362 -19 -25 -31 0
-362 -20 -25 -31 0
-362 -18 -26 -29 0
-362 -18 -26 -30 0
-362 -18 -26 -31 0
-362 -19 -26 -30 0
-362 -19 -26 -31 0
-362 -20 -26 -31 0
-362 -18 -27 -29 0
-362 -18 -27 -30 0
-362 -18 -27 -31 0
-362 -19 -27 -30 0
-362 -19 -27 -31 0
-362 -20 -27 -31 0
-362 76 0
-362 -18 79 0
-362 -19 80 0
-362 -20 81 0
-362 -63 0
-363 41 0
-363 -21 0
-363 -36 -18 -38 0
-363 -36 -19 -39 0
-363 -36 -20 -40 0
-363 -12 0
-363 -13 0
-363 -14 0
-363 -18 -4 -8 0
-363 -18 -4 -9 0
-363 -18 -4 -10 0
-363 -19 -4 -9 0
-363 -19 -4 -10 0
-363 -20 -4 -10 0
-363 -18 -5 -8 0
-363 -18 -5 -9 0
-363 -18 -5 -10 0
-363 -19 -5 -9 0
-363 -19 -5 -10 0
-363 -20 -5 -10 0
-363 -18 -6 -8 0
-363 -18 -6 -9 0
-363 -18 -6 -10 0
-363 -19 -6 -9 0
-363 -19 -6 -10 0
-363 -20 -6 -10 0
-363 -18 -25 -29 0
-363 -18 -25 -30 0
-363 -18 -25 -31 0
-363 -19 -25 -30 0
-363 -19 -25 -31 0
-363 -20 -25 -31 0
-363 -18 -26 -29 0
-363 -18 -26 -30 0
-363 -18 -26 -31 0
-363 -19 -26 -30 0
-363 -19 -26 -31 0
-363 -20 -26 -31 0
-363 -18 -27 -29 0
-363 -18 -27 -30 0
-363 -18 -27 -31 0
-363 -19 -27 -30 0
-363 -19 -27 -31 0
-363 -20 -27 -31 0
-363 77 0
-363 -18 79 0
-363 -19 80 0
-363 -20 81 0
-363 -63 0
-364 41 0
-364 -31 0
-364 -33 -28 -38 0
-364 -33 -29 -39 0
-364 -33 -30 -40 0
-364 -26 0
-364 -27 0
-364 -28 -1 -8 0
-364 -28 -1 -9 0
-364 -28 -1 -10 0
-364 -29 -1 -9 0
-364 -29 -1 -10 0
-364 -30 -1 -10 0
-364 -28 -2 -8 0
-364 -28 -2 -9 0
-364 -28 -2 -10 0
-364 -29 -2 -9 0
-364 -29 -2 -10 0
-364 -30 -2 -10 0
-364 -28 -3 -8 0
-364 -28 -3 -9 0
-364 -28 -3 -10 0
-364 -29 -3 -9 0
-364 -29 -3 -10 0
-364 -30 -3 -10 0
-364 -28 -12 -19 0
-364 -28 -12 -20 0
-364 -28 -12 -21 0
-364 -29 -12 -20 0
-364 -29 -12 -21 0
-364 -30 -12 -21 0
-364 -28 -13 -19 0
-364 -28 -13 -20 0
-364 -28 -13 -21 0
-364 -29 -13 -20 0
-364 -29 -13 -21 0
-364 -30 -13 -21 0
-364 -28 -14 -19 0
-364 -28 -14 -20 0
-364 -28 -14 -21 0
-364 -29 -14 -20 0
-364 -29 -14 -21 0
-364 -30 -14 -21 0
-364 74 0
-364 -28 79 0
-364 -29 80 0
-364 -30 81 0
-364 -73 0
-365 41 0
-365 -31 0
-365 -34 -28 -38 0
-365 -34 -29 -39 0
-365 -34 -30 -40 0
-365 -27 0
-365 -28 -2 -8 0
-365 -28 -2 -9 0
-365 -28 -2 -10 0
-365 -29 -2 -9 0
-365 -29 -2 -10 0
-365 -30 -2 -10 0
-365 -28 -3 -8 0
-365 -28 -3 -9 0
-365 -28 -3 -10 0
-365 -29 -3 -9 0
-365 -29 -3 -10 0
-365 -30 -3 -10 0
-365 -28 -4 -8 0
-365 -28 -4 -9 0
-365 -28 -4 -10 0
-365 -29 -4 -9 0
-365 -29 -4 -10 0
-365 -30 -4 -10 0
-365 -28 -13 -19 0
-365 -28 -13 -20 0
-365 -28 -13 -21 0
-365 -29 -13 -20 0
-365 -29 -13 -21 0
-365 -30 -13 -21 0
-365 -28 -14 -19 0
-365 -28 -14 -20 0
-365 -28 -14 -21 0
-365 -29 -14 -20 0
-365 -29 -14 -21 0
-365 -30 -14 -21 0
-365 -28 -15 -19 0
-365 -28 -15 -20 0
-365 -28 -15 -21 0
-365 -29 -15 -20 0
-365 -29 -15 -21 0
-365 -30 -15 -21 0
-365 75 0
-365 -28 79 0
-365 -29 80 0
-365 -30 81 0
-365 -73 0
-366 41 0
-366 -31 0
-366 -35 -28 -38 0
-366 -35 -29 -39 0
-366 -35 -30 -40 0
-366 -23 0
-366 -28 -3 -8 0
-366 -28 -3 -9 0
-366 -28 -3 -10 0
-366 -29 -3 -9 0
-366 -29 -3 -10 0
-366 -30 -3 -10 0
-366 -28 -4 -8 0
-366 -28 -4 -9 0
-366 -28 -4 -10 0
-366 -29 -4 -9 0
-366 -29 -4 -10 0
-366 -30 -4 -10 0
-366 -28 -5 -8 0
-366 -28 -5 -9 0
-366 -28 -5 -10 0
-366 -29 -5 -9 0
-366 -29 -5 -10 0
-366 -30 -5 -10 0
-366 -28 -14 -19 0
-366 -28 -14 -20 0
-366 -28 -14 -21 0
-366 -29 -14 -20 0
-366 -29 -14 -21 0
-366 -30 -14 -21 0
-366 -28 -15 -19 0
-366 -28 -15 -20 0
-366 -28 -15 -21 0
-366 -29 -15 -20 0
-366 -29 -15 -21 0
-366 -30 -15 -21 0
-366 -28 -16 -19 0
-366 -28 -16 -20 0
-366 -28 -16 -21 0
-366 -29 -16 -20 0
-366 -29 -16 -21 0
-366 -30 -16 -21 0
-366 76 0
-366 -28 79 0
-366 -29 80 0
-366 -30 81 0
-366 -73 0
-367 41 0
-367 -31 0
-367 -36 -28 -38 0
-367 -36 -29 -39 0
-367 -36 -30 -40 0
-367 -23 0
-367 -24 0
-367 -28 -4 -8 0
-367 -28 -4 -9 0
-367 -28 -4 -10 0
-367 -29 -4 -9 0
-367 -29 -4 -10 0
-367 -30 -4 -10 0
-367 -28 -5 -8 0
-367 -28 -5 -9 0
-367 -28 -5 -10 0
-367 -29 -5 -9 0
-367 -29 -5 -10 0
-367 -30 -5 -10 0
-367 -28 -6 -8 0
-367 -28 -6 -9 0
-367 -28 -6 -10 0
-367 -29 -6 -9 0
-367 -29 -6 -10 0
-367 -30 -6 -10 0
-367 -28 -15 -19 0
-367 -28 -15 -20 0
-367 -28 -15 -21 0
-367 -29 -15 -20 0
-367 -29 -15 -21 0
-367 -30 -15 -21 0
-367 -28 -16 -19 0
-367 -28 -16 -20 0
-367 -28 -16 -21 0
-367 -29 -16 -20 0
-367 -29 -16 -21 0
-367 -30 -16 -21 0
-367 -28 -17 -19 0
-367 -28 -17 -20 0
-367 -28 -17 -21 0
-367 -29 -17 -20 0
-367 -29 -17 -21 0
-367 -30 -17 -21 0
-367 77 0
-367 -28 79 0
-367 -29 80 0
-367 -30 81 0
-367 -73 0
-368 41 0
-368 -33 -37 0
-368 -1 -7 0
-368 -1 -8 0
-368 -1 -9 0
-368 -1 -10 0
-368 -2 -7 0
-368 -2 -8 0
-368 -2 -9 0
-368 -2 -10 0
-368 -3 -7 0
-368 -3 -8 0
-368 -3 -9 0
-368 -3 -10 0
-368 -12 -18 0
-368 -12 -19 0
-368 -12 -20 0
-368 -12 -21 0
-368 -13 -18 0
-368 -13 -19 0
-368 -13 -20 0
-368 -13 -21 0
-368 -14 -18 0
-368 -14 -19 0
-368 -14 -20 0
-368 -14 -21 0
-368 -23 -28 0
-368 -23 -29 0
-368 -23 -30 0
-368 -23 -31 0
-368 -24 -28 0
-368 -24 -29 0
-368 -24 -30 0
-368 -24 -31 0
-368 -25 -28 0
-368 -25 -29 0
-368 -25 -30 0
-368 -25 -31 0
-368 74 0
-368 78 0
-369 41 0
-369 -34 -37 0
-369 -2 -7 0
-369 -2 -8 0
-369 -2 -9 0
-369 -2 -10 0
-369 -3 -7 0
-369 -3 -8 0
-369 -3 -9 0
-369 -3 -10 0
-369 -4 -7 0
-369 -4 -8 0
-369 -4 -9 0
-369 -4 -10 0
-369 -13 -18 0
-369 -13 -19 0
-369 -13 -20 0
-369 -13 -21 0
-369 -14 -18 0
-369 -14 -19 0
-369 -14 -20 0
-369 -14 -21 0
-369 -15 -18 0
-369 -15 -19 0
-369 -15 -20 0
-369 -15 -21 0
-369 -23 -28 0
-369 -23 -29 0
-369 -23 -30 0
-369 -23 -31 0
-369 -24 -28 0
-369 -24 -29 0
-369 -24 -30 0
-369 -24 -31 0
-369 -25 -28 0
-369 -25 -29 0
-369 -25 -30 0
-369 -25 -31 0
-369 -26 -28 0
-369 -26 -29 0
-369 -26 -30 0
-369 -26 -31 0
-369 75 0
-369 78 0
-370 41 0
-370 -35 -37 0
-370 -3 -7 0
-370 -3 -8 0
-370 -3 -9 0
-370 -3 -10 0
-370 -4 -7 0
-370 -4 -8 0
-370 -4 -9 0
-370 -4 -10 0
-370 -5 -7 0
-370 -5 -8 0
-370 -5 -9 0
-370 -5 -10 0
-370 -14 -18 0
-370 -14 -19 0
-370 -14 -20 0
-370 -14 -21 0
-370 -15 -18 0
-370 -15 -19 0
-370 -15 -20 0
-370 -15 -21 0
-370 -16 -18 0
-370 -16 -19 0
-370 -16 -20 0
-370 -16 -21 0
-370 -24 -28 0
-370 -24 -29 0
-370 -24 -30 0
-370 -24 -31 0
-370 -25 -28 0
-370 -25 -29 0
-370 -25 -30 0
-370 -25 -31 0
-370 -26 -28 0
-370 -26 -29 0
-370 -26 -30 0
-370 -26 -31 0
-370 -27 -28 0
-370 -27 -29 0
-370 -27 -30 0
-370 -27 -31 0
-370 76 0
-370 78 0
-371 41 0
-371 -36 -37 0
-371 -4 -7 0
-371 -4 -8 0
-371 -4 -9 0
-371 -4 -10 0
-371 -5 -7 0
-371 -5 -8 0
-371 -5 -9 0
-371 -5 -10 0
-371 -6 -7 0
-371 -6 -8 0
-371 -6 -9 0
-371 -6 -10 0
-371 -15 -18 0
-371 -15 -19 0
-371 -15 -20 0
-371 -15 -21 0
-371 -16 -18 0
-371 -16 -19 0
-371 -16 -20 0
-371 -16 -21 0
-371 -17 -18 0
-371 -17 -19 0
-371 -17 -20 0
-371 -17 -21 0
-371 -25 -28 0
-371 -25 -29 0
-371 -25 -30 0
-371 -25 -31 0
-371 -26 -28 0
-371 -26 -29 0
-371 -26 -30 0
-371 -26 -31 0
-371 -27 -28 0
-371 -27 -29 0
-371 -27 -30 0
-371 -27 -31 0
-371 77 0
-371 78 0
-372 52 0
-372 -62 0
-372 -42 -59 -49 0
-372 -42 -60 -50 0
-372 -42 -61 -51 0
-372 -54 0
-372 -55 0
-372 -56 0
-372 -57 0
-372 -58 0
-372 -59 -64 -70 0
-372 -59 -64 -71 0
-372 -59 -64 -72 0
-372 -60 -64 -71 0
-372 -60 -64 -72 0
-372 -61 -64 -72 0
-372 -59 -74 -79 0
-372 -59 -74 -80 0
-372 -59 -74 -81 0
-372 -60 -74 -80 0
-372 -60 -74 -81 0
-372 -61 -74 -81 0
-372 83 0
-372 -59 90 0
-372 -60 91 0
-372 -61 92 0
-372 -104 0
-373 52 0
-373 -62 0
-373 -43 -59 -49 0
-373 -43 -60 -50 0
-373 -43 -61 -51 0
-373 -53 0
-373 -55 0
-373 -56 0
-373 -57 0
-373 -58 0
-373 -59 -64 -70 0
-373 -59 -64 -71 0
-373 -59 -64 -72 0
-373 -60 -64 -71 0
-373 -60 -64 -72 0
-373 -61 -64 -72 0
-373 -59 -65 -70 0
-373 -59 -65 -71 0
-373 -59 -65 -72 0
-373 -60 -65 -71 0
-373 -60 -65 -72 0
-373 -61 -65 -72 0
-373 -59 -74 -79 0
-373 -59 -74 -80 0
-373 -59 -74 -81 0
-373 -60 -74 -80 0
-373 -60 -74 -81 0
-373 -61 -74 -81 0
-373 -59 -75 -79 0
-373 -59 -75 -80 0
-373 -59 -75 -81 0
-373 -60 -75 -80 0
-373 -60 -75 -81 0
-373 -61 -75 -81 0
-373 84 0
-373 -59 90 0
-373 -60 91 0
-373 -61 92 0
-373 -104 0
-374 52 0
-374 -62 0
-374 -44 -59 -49 0
-374 -44 -60 -50 0
-374 -44 -61 -51 0
-374 -53 0
-374 -54 0
-374 -56 0
-374 -57 0
-374 -58 0
-374 -59 -65 -70 0
-374 -59 -65 -71 0
-374 -59 -65 -72 0
-374 -60 -65 -71 0
-374 -60 -65 -72 0
-374 -61 -65 -72 0
-374 -59 -66 -70 0
-374 -59 -66 -71 0
-374 -59 -66 -72 0
-374 -60 -66 -71 0
-374 -60 -66 -72 0
-374 -61 -66 -72 0
-374 -59 -74 -79 0
-374 -59 -74 -80 0
-374 -59 -74 -81 0
-374 -60 -74 -80 0
-374 -60 -74 -81 0
-374 -61 -74 -81 0
-374 -59 -75 -79 0
-374 -59 -75 -80 0
-374 -59 -75 -81 0
-374 -60 -75 -80 0
-374 -60 -75 -81 0
-374 -61 -75 -81 0
-374 -59 -76 -79 0
-374 -59 -76 -80 0
-374 -59 -76 -81 0
-374 -60 -76 -80 0
-374 -60 -76 -81 0
-374 -61 -76 -81 0
-374 85 0
-374 -59 90 0
-374 -60 91 0
-374 -61 92 0
-374 -104 0
-375 52 0
-375 -62 0
-375 -45 -59 -49 0
-375 -45 -60 -50 0
-375 -45 -61 -51 0
-375 -53 0
-375 -54 0
-375 -55 0
-375 -57 0
-375 -58 0
-375 -59 -66 -70 0
-375 -59 -66 -71 0
-375 -59 -66 -72 0
-375 -60 -66 -71 0
-375 -60 -66 -72 0
-375 -61 -66 -72 0
-375 -59 -67 -70 0
-375 -59 -67 -71 0
-375 -59 -67 -72 0
-375 -60 -67 -71 0
-375 -60 -67 -72 0
-375 -61 -67 -72 0
-375 -59 -75 -79 0
-375 -59 -75 -80 0
-375 -59 -75 -81 0
-375 -60 -75 -80 0
-375 -60 -75 -81 0
-375 -61 -75 -81 0
-375 -59 -76 -79 0
-375 -59 -76 -80 0
-375 -59 -76 -81 0
-375 -60 -76 -80 0
-375 -60 -76 -81 0
-375 -61 -76 -81 0
-375 -59 -77 -79 0
-375 -59 -77 -80 0
-375 -59 -77 -81 0
-375 -60 -77 -80 0
-375 -60 -77 -81 0
-375 -61 -77 -81 0
-375 86 0
-375 -59 90 0
-375 -60 91 0
-375 -61 92 0
-375 -104 0
-376 52 0
-376 -62 0
-376 -46 -59 -49 0
-376 -46 -60 -50 0
-376 -46 -61 -51 0
-376 -53 0
-376 -54 0
-376 -55 0
-376 -56 0
-376 -58 0
-376 -59 -67 -70 0
-376 -59 -67 -71 0
-376 -59 -67 -72 0
-376 -60 -67 -71 0
-376 -60 -67 -72 0
-376 -61 -67 -72 0
-376 -59 -68 -70 0
-376 -59 -68 -71 0
-376 -59 -68 -72 0
-376 -60 -68 -71 0
-376 -60 -68 -72 0
-376 -61 -68 -72 0
-376 -59 -76 -79 0
-376 -59 -76 -80 0
-376 -59 -76 -81 0
-376 -60 -76 -80 0
-376 -60 -76 -81 0
-376 -61 -76 -81 0
-376 -59 -77 -79 0
-376 -59 -77 -80 0
-376 -59 -77 -81 0
-376 -60 -77 -80 0
-376 -60 -77 -81 0
-376 -61 -77 -81 0
-376 87 0
-376 -59 90 0
-376 -60 91 0
-376 -61 92 0
-376 -104 0
-377 52 0
-377 -62 0
-377 -47 -59 -49 0
-377 -47 -60 -50 0
-377 -47 -61 -51 0
-377 -53 0
-377 -54 0
-377 -55 0
-377 -56 0
-377 -57 0
-377 -59 -68 -70 0
-377 -59 -68 -71 0
-377 -59 -68 -72 0
-377 -60 -68 -71 0
-377 -60 -68 -72 0
-377 -61 -68 -72 0
-377 -59 -77 -79 0
-377 -59 -77 -80 0
-377 -59 -77 -81 0
-377 -60 -77 -80 0
-377 -60 -77 -81 0
-377 -61 -77 -81 0
-377 88 0
-377 -59 90 0
-377 -60 91 0
-377 -61 92 0
-377 -104 0
-378 52 0
-378 -72 0
-378 -42 -69 -49 0
-378 -42 -70 -50 0
-378 -42 -71 -51 0
-378 -65 0
-378 -66 0
-378 -67 0
-378 -68 0
-378 -69 -53 -60 0
-378 -69 -53 -61 0
-378 -69 -53 -62 0
-378 -70 -53 -61 0
-378 -70 -53 -62 0
-378 -71 -53 -62 0
-378 -69 -74 -79 0
-378 -69 -74 -80 0
-378 -69 -74 -81 0
-378 -70 -74 -80 0
-378 -70 -74 -81 0
-378 -71 -74 -81 0
-378 83 0
-378 -69 90 0
-378 -70 91 0
-378 -71 92 0
-378 -114 0
-379 52 0
-379 -72 0
-379 -43 -69 -49 0
-379 -43 -70 -50 0
-379 -43 -71 -51 0
-379 -66 0
-379 -67 0
-379 -68 0
-379 -69 -54 -60 0
-379 -69 -54 -61 0
-379 -69 -54 -62 0
-379 -70 -54 -61 0
-379 -70 -54 -62 0
-379 -71 -54 -62 0
-379 -69 -74 -79 0
-379 -69 -74 -80 0
-379 -69 -74 -81 0
-379 -70 -74 -80 0
-379 -70 -74 -81 0
-379 -71 -74 -81 0
-379 -69 -75 -79 0
-379 -69 -75 -80 0
-379 -69 -75 -81 0
-379 -70 -75 -80 0
-379 -70 -75 -81 0
-379 -71 -75 -81 0
-379 84 0
-379 -69 90 0
-379 -70 91 0
-379 -71 92 0
-379 -114 0
-380 52 0
-380 -72 0
-380 -44 -69 -49 0
-380 -44 -70 -50 0
-380 -44 -71 -51 0
-380 -64 0
-380 -67 0
-380 -68 0
-380 -69 -55 -60 0
-380 -69 -55 -61 0
-380 -69 -55 -62 0
-380 -70 -55 -61 0
-380 -70 -55 -62 0
-380 -71 -55 -62 0
-380 -69 -74 -79 0
-380 -69 -74 -80 0
-380 -69 -74 -81 0
-380 -70 -74 -80 0
-380 -70 -74 -81 0
-380 -71 -74 -81 0
-380 -69 -75 -79 0
-380 -69 -75 -80 0
-380 -69 -75 -81 0
-380 -70 -75 -80 0
-380 -70 -75 -81 0
-380 -71 -75 -81 0
-380 -69 -76 -79 0
-380 -69 -76 -80 0
-380 -69 -76 -81 0
-380 -70 -76 -80 0
-380 -70 -76 -81 0
-380 -71 -76 -81 0
-380 85 0
-380 -69 90 0
-380 -70 91 0
-380 -71 92 0
-380 -114 0
-381 52 0
-381 -72 0
-381 -45 -69 -49 0
-381 -45 -70 -50 0
-381 -45 -71 -51 0
-381 -64 0
-381 -65 0
-381 -68 0
-381 -69 -56 -60 0
-381 -69 -56 -61 0
-381 -69 -56 -62 0
-381 -70 -56 -61 0
-381 -70 -56 -62 0
-381 -71 -56 -62 0
-381 -69 -75 -79 0
-381 -69 -75 -80 0
-381 -69 -75 -81 0
-381 -70 -75 -80 0
-381 -70 -75 -81 0
-381 -71 -75 -81 0
-381 -69 -76 -79 0
-381 -69 -76 -80 0
-381 -69 -76 -81 0
-381 -70 -76 -80 0
-381 -70 -76 -81 0
-381 -71 -76 -81 0
-381 -69 -77 -79 0
-381 -69 -77 -80 0
-381 -69 -77 -81 0
-381 -70 -77 -80 0
-381 -70 -77 -81 0
-381 -71 -77 -81 0
-381 86 0
-381 -69 90 0
-381 -70 91 0
-381 -71 92 0
-381 -114 0
-382 52 0
-382 -72 0
-382 -46 -69 -49 0
-382 -46 -70 -50 0
-382 -46 -71 -51 0
-382 -64 0
-382 -65 0
-382 -66 0
-382 -69 -57 -60 0
-382 -69 -57 -61 0
-382 -69 -57 -62 0
-382 -70 -57 -61 0
-382 -70 -57 -62 0
-382 -71 -57 -62 0
-382 -69 -76 -79 0
-382 -69 -76 -80 0
-382 -69 -76 -81 0
-382 -70 -76 -80 0
-382 -70 -76 -81 0
-382 -71 -76 -81 0
-382 -69 -77 -79 0
-382 -69 -77 -80 0
-382 -69 -77 -81 0
-382 -70 -77 -80 0
-382 -70 -77 -81 0
-382 -71 -77 -81 0
-382 87 0
-382 -69 90 0
-382 -70 91 0
-382 -71 92 0
-382 -114 0
-383 52 0
-383 -72 0
-383 -47 -69 -49 0
-383 -47 -70 -50 0
-383 -47 -71 -51 0
-383 -64 0
-383 -65 0
-383 -66 0
-383 -67 0
-383 -69 -58 -60 0
-383 -69 -58 -61 0
-383 -69 -58 -62 0
-383 -70 -58 -61 0
-383 -70 -58 -62 0
-383 -71 -58 -62 0
-383 -69 -77 -79 0
-383 -69 -77 -80 0
-383 -69 -77 -81 0
-383 -70 -77 -80 0
-383 -70 -77 -81 0
-383 -71 -77 -81 0
-383 88 0
-383 -69 90 0
-383 -70 91 0
-383 -71 92 0
-383 -114 0
-384 52 0
-384 -81 0
-384 -42 -78 -49 0
-384 -42 -79 -50 0
-384 -42 -80 -51 0
-384 -75 0
-384 -76 0
-384 -77 0
-384 -78 -53 -60 0
-384 -78 -53 -61 0
-384 -78 -53 -62 0
-384 -79 -53 -61 0
-384 -79 -53 -62 0
-384 -80 -53 -62 0
-384 -78 -64 -70 0
-384 -78 -64 -71 0
-384 -78 -64 -72 0
-384 -79 -64 -71 0
-384 -79 -64 -72 0
-384 -80 -64 -72 0
-384 83 0
-384 -78 90 0
-384 -79 91 0
-384 -80 92 0
-384 -123 0
-385 52 0
-385 -81 0
-385 -43 -78 -49 0
-385 -43 -79 -50 0
-385 -43 -80 -51 0
-385 -76 0
-385 -77 0
-385 -78 -54 -60 0
-385 -78 -54 -61 0
-385 -78 -54 -62 0
-385 -79 -54 -61 0
-385 -79 -54 -62 0
-385 -80 -54 -62 0
-385 -78 -64 -70 0
-385 -78 -64 -71 0
-385 -78 -64 -72 0
-385 -79 -64 -71 0
-385 -79 -64 -72 0
-385 -80 -64 -72 0
-385 -78 -65 -70 0
-385 -78 -65 -71 0
-385 -78 -65 -72 0
-385 -79 -65 -71 0
-385 -79 -65 -72 0
-385 -80 -65 -72 0
-385 84 0
-385 -78 90 0
-385 -79 91 0
-385 -80 92 0
-385 -123 0
-386 52 0
-386 -81 0
-386 -44 -78 -49 0
-386 -44 -79 -50 0
-386 -44 -80 -51 0
-386 -77 0
-386 -78 -55 -60 0
-386 -78 -55 -61 0
-386 -78 -55 -62 0
-386 -79 -55 -61 0
-386 -79 -55 -62 0
-386 -80 -55 -62 0
-386 -78 -65 -70 0
-386 -78 -65 -71 0
-386 -78 -65 -72 0
-386 -79 -65 -71 0
-386 -79 -65 -72 0
-386 -80 -65 -72 0
-386 -78 -66 -70 0
-386 -78 -66 -71 0
-386 -78 -66 -72 0
-386 -79 -66 -71 0
-386 -79 -66 -72 0
-386 -80 -66 -72 0
-386 85 0
-386 -78 90 0
-386 -79 91 0
-386 -80 92 0
-386 -123 0
-387 52 0
-387 -81 0
-387 -45 -78 -49 0
-387 -45 -79 -50 0
-387 -45 -80 -51 0
-387 -74 0
-387 -78 -56 -60 0
-387 -78 -56 -61 0
-387 -78 -56 -62 0
-387 -79 -56 -61 0
-387 -79 -56 -62 0
-387 -80 -56 -62 0
-387 -78 -66 -70 0
-387 -78 -66 -71 0
-387 -78 -66 -72 0
-387 -79 -66 -71 0
-387 -79 -66 -72 0
-387 -80 -66 -72 0
-387 -78 -67 -70 0
-387 -78 -67 -71 0
-387 -78 -67 -72 0
-387 -79 -67 -71 0
-387 -79 -67 -72 0
-387 -80 -67 -72 0
-387 86 0
-387 -78 90 0
-387 -79 91 0
-387 -80 92 0
-387 -123 0
-388 52 0
-388 -81 0
-388 -46 -78 -49 0
-388 -46 -79 -50 0
-388 -46 -80 -51 0
-388 -74 0
-388 -75 0
-388 -78 -57 -60 0
-388 -78 -57 -61 0
-388 -78 -57 -62 0
-388 -79 -57 -61 0
-388 -79 -57 -62 0
-388 -80 -57 -62 0
-388 -78 -67 -70 0
-388 -78 -67 -71 0
-388 -78 -67 -72 0
-388 -79 -67 -71 0
-388 -79 -67 -72 0
-388 -80 -67 -72 0
-388 -78 -68 -70 0
-388 -78 -68 -71 0
-388 -78 -68 -72 0
-388 -79 -68 -71 0
-388 -79 -68 -72 0
-388 -80 -68 -72 0
-388 87 0
-388 -78 90 0
-388 -79 91 0
-388 -80 92 0
-388 -123 0
-389 52 0
-389 -81 0
-389 -47 -78 -49 0
-389 -47 -79 -50 0
-389 -47 -80 -51 0
-389 -74 0
-389 -75 0
-389 -76 0
-389 -78 -58 -60 0
-389 -78 -58 -61 0
-389 -78 -58 -62 0
-389 -79 -58 -61 0
-389 -79 -58 -62 0
-389 -80 -58 -62 0
-389 -78 -68 -70 0
-389 -78 -68 -71 0
-389 -78 -68 -72 0
-389 -79 -68 -71 0
-389 -79 -68 -72 0
-389 -80 -68 -72 0
-389 88 0
-389 -78 90 0
-389 -79 91 0
-389 -80 92 0
-389 -123 0
-390 52 0
-390 -42 -48 0
-390 -53 -59 0
-390 -53 -60 0
-390 -53 -61 0
-390 -53 -62 0
-390 -64 -69 0
-390 -64 -70 0
-390 -64 -71 0
-390 -64 -72 0
-390 -74 -78 0
-390 -74 -79 0
-390 -74 -80 0
-390 -74 -81 0
-390 83 0
-390 89 0
-391 52 0
-391 -43 -48 0
-391 -54 -59 0
-391 -54 -60 0
-391 -54 -61 0
-391 -54 -62 0
-391 -64 -69 0
-391 -64 -70 0
-391 -64 -71 0
-391 -64 -72 0
-391 -65 -69 0
-391 -65 -70 0
-391 -65 -71 0
-391 -65 -72 0
-391 -74 -78 0
-391 -74 -79 0
-391 -74 -80 0
-391 -74 -81 0
-391 -75 -78 0
-391 -75 -79 0
-391 -75 -80 0
-391 -75 -81 0
-391 84 0
-391 89 0
-392 52 0
-392 -44 -48 0
-392 -55 -59 0
-392 -55 -60 0
-392 -55 -61 0
-392 -55 -62 0
-392 -65 -69 0
-392 -65 -70 0
-392 -65 -71 0
-392 -65 -72 0
-392 -66 -69 0
-392 -66 -70 0
-392 -66 -71 0
-392 -66 -72 0
-392 -74 -78 0
-392 -74 -79 0
-392 -74 -80 0
-392 -74 -81 0
-392 -75 -78 0
-392 -75 -79 0
-392 -75 -80 0
-392 -75 -81 0
-392 -76 -78 0
-392 -76 -79 0
-392 -76 -80 0
-392 -76 -81 0
-392 85 0
-392 89 0
-393 52 0
-393 -45 -48 0
-393 -56 -59 0
-393 -56 -60 0
-393 -56 -61 0
-393 -56 -62 0
-393 -66 -69 0
-393 -66 -70 0
-393 -66 -71 0
-393 -66 -72 0
-393 -67 -69 0
-393 -67 -70 0
-393 -67 -71 0
-393 -67 -72 0
-393 -75 -78 0
-393 -75 -79 0
-393 -75 -80 0
-393 -75 -81 0
-393 -76 -78 0
-393 -76 -79 0
-393 -76 -80 0
-393 -76 -81 0
-393 -77 -78 0
-393 -77 -79 0
-393 -77 -80 0
-393 -77 -81 0
-393 86 0
-393 89 0
-394 52 0
-394 -46 -48 0
-394 -57 -59 0
-394 -57 -60 0
-394 -57 -61 0
-394 -57 -62 0
-394 -67 -69 0
-394 -67 -70 0
-394 -67 -71 0
-394 -67 -72 0
-394 -68 -69 0
-394 -68 -70 0
-394 -68 -71 0
-394 -68 -72 0
-394 -76 -78 0
-394 -76 -79 0
-394 -76 -80 0
-394 -76 -81 0
-394 -77 -78 0
-394 -77 -79 0
-394 -77 -80 0
-394 -77 -81 0
-394 87 0
-394 89 0
-395 52 0
-395 -47 -48 0
-395 -58 -59 0
-395 -58 -60 0
-395 -58 -61 0
-395 -58 -62 0
-395 -68 -69 0
-395 -68 -70 0
-395 -68 -71 0
-395 -68 -72 0
-395 -77 -78 0
-395 -77 -79 0
-395 -77 -80 0
-395 -77 -81 0
-395 88 0
-395 89 0
-396 63 0
-396 -51 0
-396 -53 -48 -60 0
-396 -53 -49 -61 0
-396 -53 -50 -62 0
-396 -43 0
-396 -44 0
-396 -45 0
-396 -46 0
-396 -47 0
-396 -48 -64 -70 0
-396 -48 -64 -71 0
-396 -48 -64 -72 0
-396 -49 -64 -71 0
-396 -49 -64 -72 0
-396 -50 -64 -72 0
-396 -48 -74 -79 0
-396 -48 -74 -80 0
-396 -48 -74 -81 0
-396 -49 -74 -80 0
-396 -49 -74 -81 0
-396 -50 -74 -81 0
-396 94 0
-396 -48 101 0
-396 -49 102 0
-396 -50 103 0
-396 -93 0
-397 63 0
-397 -51 0
-397 -54 -48 -60 0
-397 -54 -49 -61 0
-397 -54 -50 -62 0
-397 -42 0
-397 -44 0
-397 -45 0
-397 -46 0
-397 -47 0
-397 -48 -64 -70 0
-397 -48 -64 -71 0
-397 -48 -64 -72 0
-397 -49 -64 -71 0
-397 -49 -64 -72 0
-397 -50 -64 -72 0
-397 -48 -65 -70 0
-397 -48 -65 -71 0
-397 -48 -65 -72 0
-397 -49 -65 -71 0
-397 -49 -65 -72 0
-397 -50 -65 -72 0
-397 -48 -74 -79 0
-397 -48 -74 -80 0
-397 -48 -74 -81 0
-397 -49 -74 -80 0
-397 -49 -74 -81 0
-397 -50 -74 -81 0
-397 -48 -75 -79 0
-397 -48 -75 -80 0
-397 -48 -75 -81 0
-397 -49 -75 -80 0
-397 -49 -75 -81 0
-397 -50 -75 -81 0
-397 95 0
-397 -48 101 0
-397 -49 102 0
-397 -50 103 0
-397 -93 0
-398 63 0
-398 -51 0
-398 -55 -48 -60 0
-398 -55 -49 -61 0
-398 -55 -50 -62 0
-398 -42 0
-398 -43 0
-398 -45 0
-398 -46 0
-398 -47 0
-398 -48 -65 -70 0
-398 -48 -65 -71 0
-398 -48 -65 -72 0
-398 -49 -65 -71 0
-398 -49 -65 -72 0
-398 -50 -65 -72 0
-398 -48 -66 -70 0
-398 -48 -66 -71 0
-398 -48 -66 -72 0
-398 -49 -66 -71 0
-398 -49 -66 -72 0
-398 -50 -66 -72 0
-398 -48 -74 -79 0
-398 -48 -74 -80 0
-398 -48 -74 -81 0
-398 -49 -74 -80 0
-398 -49 -74 -81 0
-398 -50 -74 -81 0
-398 -48 -75 -79 0
-398 -48 -75 -80 0
-398 -48 -75 -81 0
-398 -49 -75 -80 0
-398 -49 -75 -81 0
-398 -50 -75 -81 0
-398 -48 -76 -79 0
-398 -48 -76 -80 0
-398 -48 -76 -81 0
-398 -49 -76 -80 0
-398 -49 -76 -81 0
-398 -50 -76 -81 0
-398 96 0
-398 -48 101 0
-398 -49 102 0
-398 -50 103 0
-398 -93 0
-399 63 0
-399 -51 0
-399 -56 -48 -60 0
-399 -56 -49 -61 0
-399 -56 -50 -62 0
-399 -42 0
-399 -43 0
-399 -44 0
-399 -46 0
-399 -47 0
-399 -48 -66 -70 0
-399 -48 -66 -71 0
-399 -48 -66 -72 0
-399 -49 -66 -71 0
-399 -49 -66 -72 0
-399 -50 -66 -72 0
-399 -48 -67 -70 0
-399 -48 -67 -71 0
-399 -48 -67 -72 0
-399 -49 -67 -71 0
-399 -49 -67 -72 0
-399 -50 -67 -72 0
-399 -48 -75 -79 0
-399 -48 -75 -80 0
-399 -48 -75 -81 0
-399 -49 -75 -80 0
-399 -49 -75 -81 0
-399 -50 -75 -81 0
-399 -48 -76 -79 0
-399 -48 -76 -80 0
-399 -48 -76 -81 0
-399 -49 -76 -80 0
-399 -49 -76 -81 0
-399 -50 -76 -81 0
-399 -48 -77 -79 0
-399 -48 -77 -80 0
-399 -48 -77 -81 0
-399 -49 -77 -80 0
-399 -49 -77 -81 0
-399 -50 -77 -81 0
-399 97 0
-399 -48 101 0
-399 -49 102 0
-399 -50 103 0
-399 -93 0
-400 63 0
-400 -51 0
-400 -57 -48 -60 0
-400 -57 -49 -61 0
-400 -57 -50 -62 0
-400 -42 0
-400 -43 0
-400 -44 0
-400 -45 0
-400 -47 0
-400 -48 -67 -70 0
-400 -48 -67 -71 0
-400 -48 -67 -72 0
-400 -49 -67 -71 0
-400 -49 -67 -72 0
-400 -50 -67 -72 0
-400 -48 -68 -70 0
-400 -48 -68 -71 0
-400 -48 -68 -72 0
-400 -49 -68 -71 0
-400 -49 -68 -72 0
-400 -50 -68 -72 0
-400 -48 -76 -79 0
-400 -48 -76 -80 0
-400 -48 -76 -81 0
-400 -49 -76 -80 0
-400 -49 -76 -81 0
-400 -50 -76 -81 0
-400 -48 -77 -79 0
-400 -48 -77 -80 0
-400 -48 -77 -81 0
-400 -49 -77 -80 0
-400 -49 -77 -81 0
-400 -50 -77 -81 0
-400 98 0
-400 -48 101 0
-400 -49 102 0
-400 -50 103 0
-400 -93 0
-401 63 0
-401 -51 0
-401 -58 -48 -60 0
-401 -58 -49 -61 0
-401 -58 -50 -62 0
-401 -42 0
-401 -43 0
-401 -44 0
-401 -45 0
-401 -46 0
-401 -48 -68 -70 0
-401 -48 -68 -71 0
-401 -48 -68 -72 0
-401 -49 -68 -71 0
-401 -49 -68 -72 0
-401 -50 -68 -72 0
-401 -48 -77 -79 0
-401 -48 -77 -80 0
-401 -48 -77 -81 0
-401 -49 -77 -80 0
-401 -49 -77 -81 0
-401 -50 -77 -81 0
-401 99 0
-401 -48 101 0
-401 -49 102 0
-401 -50 103 0
-401 -93 0
-402 63 0
-402 -72 0
-402 -53 -69 -60 0
-402 -53 -70 -61 0
-402 -53 -71 -62 0
-402 -65 0
-402 -66 0
-402 -67 0
-402 -68 0
-402 -69 -42 -49 0
-402 -69 -42 -50 0
-402 -69 -42 -51 0
-402 -70 -42 -50 0
-402 -70 -42 -51 0
-402 -71 -42 -51 0
-402 -69 -74 -79 0
-402 -69 -74 -80 0
-402 -69 -74 -81 0
-402 -70 -74 -80 0
-402 -70 -74 -81 0
-402 -71 -74 -81 0
-402 94 0
-402 -69 101 0
-402 -70 102 0
-402 -71 103 0
-402 -114 0
-403 63 0
-403 -72 0
-403 -54 -69 -60 0
-403 -54 -70 -61 0
-403 -54 -71 -62 0
-403 -66 0
-403 -67 0
-403 -68 0
-403 -69 -43 -49 0
-403 -69 -43 -50 0
-403 -69 -43 -51 0
-403 -70 -43 -50 0
-403 -70 -43 -51 0
-403 -71 -43 -51 0
-403 -69 -74 -79 0
-403 -69 -74 -80 0
-403 -69 -74 -81 0
-403 -70 -74 -80 0
-403 -70 -74 -81 0
-403 -71 -74 -81 0
-403 -69 -75 -79 0
-403 -69 -75 -80 0
-403 -69 -75 -81 0
-403 -70 -75 -80 0
-403 -70 -75 -81 0
-403 -71 -75 -81 0
-403 95 0
-403 -69 101 0
-403 -70 102 0
-403 -71 103 0
-403 -114 0
-404 63 0
-404 -72 0
-404 -55 -69 -60 0
-404 -55 -70 -61 0
-404 -55 -71 -62 0
-404 -64 0
-404 -67 0
-404 -68 0
-404 -69 -44 -49 0
-404 -69 -44 -50 0
-404 -69 -44 -51 0
-404 -70 -44 -50 0
-404 -70 -44 -51 0
-404 -71 -44 -51 0
-404 -69 -74 -79 0
-404 -69 -74 -80 0
-404 -69 -74 -81 0
-404 -70 -74 -80 0
-404 -70 -74 -81 0
-404 -71 -74 -81 0
-404 -69 -75 -79 0
-404 -69 -75 -80 0
-404 -69 -75 -81 0
-404 -70 -75 -80 0
-404 -70 -75 -81 0
-404 -71 -75 -81 0
-404 -69 -76 -79 0
-404 -69 -76 -80 0
-404 -69 -76 -81 0
-404 -70 -76 -80 0
-404 -70 -76 -81 0
-404 -71 -76 -81 0
-404 96 0
-404 -69 101 0
-404 -70 102 0
-404 -71 103 0
-404 -114 0
-405 63 0
-405 -72 0
-405 -56 -69 -60 0
-405 -56 -70 -61 0
-405 -56 -71 -62 0
-405 -64 0
-405 -65 0
-405 -68 0
-405 -69 -45 -49 0
-405 -69 -45 -50 0
-405 -69 -45 -51 0
-405 -70 -45 -50 0
-405 -70 -45 -51 0
-405 -71 -45 -51 0
-405 -69 -75 -79 0
-405 -69 -75 -80 0
-405 -69 -75 -81 0
-405 -70 -75 -80 0
-405 -70 -75 -81 0
-405 -71 -75 -81 0
-405 -69 -76 -79 0
-405 -69 -76 -80 0
-405 -69 -76 -81 0
-405 -70 -76 -80 0
-405 -70 -76 -81 0
-405 -71 -76 -81 0
-405 -69 -77 -79 0
-405 -69 -77 -80 0
-405 -69 -77 -81 0
-405 -70 -77 -80 0
-405 -70 -77 -81 0
-405 -71 -77 -81 0
-405 97 0
-405 -69 101 0
-405 -70 102 0
-405 -71 103 0
-405 -114 0
-406 63 0
-406 -72 0
-406 -57 -69 -60 0
-406 -57 -70 -61 0
-406 -57 -71 -62 0
-406 -64 0
-406 -65 0
-406 -66 0
-406 -69 -46 -49 0
-406 -69 -46 -50 0
-406 -69 -46 -51 0
-406 -70 -46 -50 0
-406 -70 -46 -51 0
-406 -71 -46 -51 0
-406 -69 -76 -79 0
-406 -69 -76 -80 0
-406 -69 -76 -81 0
-406 -70 -76 -80 0
-406 -70 -76 -81 0
-406 -71 -76 -81 0
-406 -69 -77 -79 0
-406 -69 -77 -80 0
-406 -69 -77 -81 0
-406 -70 -77 -80 0
-406 -70 -77 -81 0
-406 -71 -77 -81 0
-406 98 0
-406 -69 101 0
-406 -70 102 0
-406 -71 103 0
-406 -114 0
-407 63 0
-407 -72 0
-407 -58 -69 -60 0
-407 -58 -70 -61 0
-407 -58 -71 -62 0
-407 -64 0
-407 -65 0
-407 -66 0
-407 -67 0
-407 -69 -47 -49 0
-407 -69 -47 -50 0
-407 -69 -47 -51 0
-407 -70 -47 -50 0
-407 -70 -47 -51 0
-407 -71 -47 -51 0
-407 -69 -77 -79 0
-407 -69 -77 -80 0
-407 -69 -77 -81 0
-407 -70 -77 -80 0
-407 -70 -77 -81 0
-407 -71 -77 -81 0
-407 99 0
-407 -69 101 0
-407 -70 102 0
-407 -71 103 0
-407 -114 0
-408 63 0
-408 -81 0
-408 -53 -78 -60 0
-408 -53 -79 -61 0
-408 -53 -80 -62 0
-408 -75 0
-408 -76 0
-408 -77 0
-408 -78 -42 -49 0
-408 -78 -42 -50 0
-408 -78 -42 -51 0
-408 -79 -42 -50 0
-408 -79 -42 -51 0
-408 -80 -42 -51 0
-408 -78 -64 -70 0
-408 -78 -64 -71 0
-408 -78 -64 -72 0
-408 -79 -64 -71 0
-408 -79 -64 -72 0
-408 -80 -64 -72 0
-408 94 0
-408 -78 101 0
-408 -79 102 0
-408 -80 103 0
-408 -123 0
-409 63 0
-409 -81 0
-409 -54 -78 -60 0
-409 -54 -79 -61 0
-409 -54 -80 -62 0
-409 -76 0
-409 -77 0
-409 -78 -43 -49 0
-409 -78 -43 -50 0
-409 -78 -43 -51 0
-409 -79 -43 -50 0
-409 -79 -43 -51 0
-409 -80 -43 -51 0
-409 -78 -64 -70 0
-409 -78 -64 -71 0
-409 -78 -64 -72 0
-409 -79 -64 -71 0
-409 -79 -64 -72 0
-409 -80 -64 -72 0
-409 -78 -65 -70 0
-409 -78 -65 -71 0
-409 -78 -65 -72 0
-409 -79 -65 -71 0
-409 -79 -65 -72 0
-409 -80 -65 -72 0
-409 95 0
-409 -78 101 0
-409 -79 102 0
-409 -80 103 0
-409 -123 0
-410 63 0
-410 -81 0
-410 -55 -78 -60 0
-410 -55 -79 -61 0
-410 -55 -80 -62 0
-410 -77 0
-410 -78 -44 -49 0
-410 -78 -44 -50 0
-410 -78 -44 -51 0
-410 -79 -44 -50 0
-410 -79 -44 -51 0
-410 -80 -44 -51 0
-410 -78 -65 -70 0
-410 -78 -65 -71 0
-410 -78 -65 -72 0
-410 -79 -65 -71 0
-410 -79 -65 -72 0
-410 -80 -65 -72 0
-410 -78 -66 -70 0
-410 -78 -66 -71 0
-410 -78 -66 -72 0
-410 -79 -66 -71 0
-410 -79 -66 -72 0
-410 -80 -66 -72 0
-410 96 0
-410 -78 101 0
-410 -79 102 0
-410 -80 103 0
-410 -123 0
-411 63 0
-411 -81 0
-411 -56 -78 -60 0
-411 -56 -79 -61 0
-411 -56 -80 -62 0
-411 -74 0
-411 -78 -45 -49 0
-411 -78 -45 -50 0
-411 -78 -45 -51 0
-411 -79 -45 -50 0
-411 -79 -45 -51 0
-411 -80 -45 -51 0
-411 -78 -66 -70 0
-411 -78 -66 -71 0
-411 -78 -66 -72 0
-411 -79 -66 -71 0
-411 -79 -66 -72 0
-411 -80 -66 -72 0
-411 -78 -67 -70 0
-411 -78 -67 -71 0
-411 -78 -67 -72 0
-411 -79 -67 -71 0
-411 -79 -67 -72 0
-411 -80 -67 -72 0
-411 97 0
-411 -78 101 0
-411 -79 102 0
-411 -80 103 0
-411 -123 0
-412 63 0
-412 -81 0
-412 -57 -78 -60 0
-412 -57 -79 -61 0
-412 -57 -80 -62 0
-412 -74 0
-412 -75 0
-412 -78 -46 -49 0
-412 -78 -46 -50 0
-412 -78 -46 -51 0
-412 -79 -46 -50 0
-412 -79 -46 -51 0
-412 -80 -46 -51 0
-412 -78 -67 -70 0
-412 -78 -67 -71 0
-412 -78 -67 -72 0
-412 -79 -67 -71 0
-412 -79 -67 -72 0
-412 -80 -67 -72 0
-412 -78 -68 -70 0
-412 -78 -68 -71 0
-412 -78 -68 -72 0
-412 -79 -68 -71 0
-412 -79 -68 -72 0
-412 -80 -68 -72 0
-412 98 0
-412 -78 101 0
-412 -79 102 0
-412 -80 103 0
-412 -123 0
-413 63 0
-413 -81 0
-413 -58 -78 -60 0
-413 -58 -79 -61 0
-413 -58 -80 -62 0
-413 -74 0
-413 -75 0
-413 -76 0
-413 -78 -47 -49 0
-413 -78 -47 -50 0
-413 -78 -47 -51 0
-413 -79 -47 -50 0
-413 -79 -47 -51 0
-413 -80 -47 -51 0
-413 -78 -68 -70 0
-413 -78 -68 -71 0
-413 -78 -68 -72 0
-413 -79 -68 -71 0
-413 -79 -68 -72 0
-413 -80 -68 -72 0
-413 99 0
-413 -78 101 0
-413 -79 102 0
-413 -80 103 0
-413 -123 0
-414 63 0
-414 -53 -59 0
-414 -42 -48 0
-414 -42 -49 0
-414 -42 -50 0
-414 -42 -51 0
-414 -64 -69 0
-414 -64 -70 0
-414 -64 -71 0
-414 -64 -72 0
-414 -74 -78 0
-414 -74 -79 0
-414 -74 -80 0
-414 -74 -81 0
-414 94 0
-414 100 0
-415 63 0
-415 -54 -59 0
-415 -43 -48 0
-415 -43 -49 0
-415 -43 -50 0
-415 -43 -51 0
-415 -64 -69 0
-415 -64 -70 0
-415 -64 -71 0
-415 -64 -72 0
-415 -65 -69 0
-415 -65 -70 0
-415 -65 -71 0
-415 -65 -72 0
-415 -74 -78 0
-415 -74 -79 0
-415 -74 -80 0
-415 -74 -81 0
-415 -75 -78 0
-415 -75 -79 0
-415 -75 -80 0
-415 -75 -81 0
-415 95 0
-415 100 0
-416 63 0
-416 -55 -59 0
-416 -44 -48 0
-416 -44 -49 0
-416 -44 -50 0
-416 -44 -51 0
-416 -65 -69 0
-416 -65 -70 0
-416 -65 -71 0
-416 -65 -72 0
-416 -66 -69 0
-416 -66 -70 0
-416 -66 -71 0
-416 -66 -72 0
-416 -74 -78 0
-416 -74 -79 0
-416 -74 -80 0
-416 -74 -81 0
-416 -75 -78 0
-416 -75 -79 0
-416 -75 -80 0
-416 -75 -81 0
-416 -76 -78 0
-416 -76 -79 0
-416 -76 -80 0
-416 -76 -81 0
-416 96 0
-416 100 0
-417 63 0
-417 -56 -59 0
-417 -45 -48 0
-417 -45 -49 0
-417 -45 -50 0
-417 -45 -51 0
-417 -66 -69 0
-417 -66 -70 0
-417 -66 -71 0
-417 -66 -72 0
-417 -67 -69 0
-417 -67 -70 0
-417 -67 -71 0
-417 -67 -72 0
-417 -75 -78 0
-417 -75 -79 0
-417 -75 -80 0
-417 -75 -81 0
-417 -76 -78 0
-417 -76 -79 0
-417 -76 -80 0
-417 -76 -81 0
-417 -77 -78 0
-417 -77 -79 0
-417 -77 -80 0
-417 -77 -81 0
-417 97 0
-417 100 0
-418 63 0
-418 -57 -59 0
-418 -46 -48 0
-418 -46 -49 0
-418 -46 -50 0
-418 -46 -51 0
-418 -67 -69 0
-418 -67 -70 0
-418 -67 -71 0
-418 -67 -72 0
-418 -68 -69 0
-418 -68 -70 0
-418 -68 -71 0
-418 -68 -72 0
-418 -76 -78 0
-418 -76 -79 0
-418 -76 -80 0
-418 -76 -81 0
-418 -77 -78 0
-418 -77 -79 0
-418 -77 -80 0
-418 -77 -81 0
-418 98 0
-418 100 0
-419 63 0
-419 -58 -59 0
-419 -47 -48 0
-419 -47 -49 0
-419 -47 -50 0
-419 -47 -51 0
-419 -68 -69 0
-419 -68 -70 0
-419 -68 -71 0
-419 -68 -72 0
-419 -77 -78 0
-419 -77 -79 0
-419 -77 -80 0
-419 -77 -81 0
-419 99 0
-419 100 0
-420 73 0
-420 -51 0
-420 -64 -48 -70 0
-420 -64 -49 -71 0
-420 -64 -50 -72 0
-420 -44 0
-420 -45 0
-420 -46 0
-420 -47 0
-420 -48 -53 -60 0
-420 -48 -53 -61 0
-420 -48 -53 -62 0
-420 -49 -53 -61 0
-420 -49 -53 -62 0
-420 -50 -53 -62 0
-420 -48 -54 -60 0
-420 -48 -54 -61 0
-420 -48 -54 -62 0
-420 -49 -54 -61 0
-420 -49 -54 -62 0
-420 -50 -54 -62 0
-420 -48 -74 -79 0
-420 -48 -74 -80 0
-420 -48 -74 -81 0
-420 -49 -74 -80 0
-420 -49 -74 -81 0
-420 -50 -74 -81 0
-420 -48 -75 -79 0
-420 -48 -75 -80 0
-420 -48 -75 -81 0
-420 -49 -75 -80 0
-420 -49 -75 -81 0
-420 -50 -75 -81 0
-420 105 0
-420 -48 111 0
-420 -49 112 0
-420 -50 113 0
-420 -93 0
-421 73 0
-421 -51 0
-421 -65 -48 -70 0
-421 -65 -49 -71 0
-421 -65 -50 -72 0
-421 -42 0
-421 -45 0
-421 -46 0
-421 -47 0
-421 -48 -54 -60 0
-421 -48 -54 -61 0
-421 -48 -54 -62 0
-421 -49 -54 -61 0
-421 -49 -54 -62 0
-421 -50 -54 -62 0
-421 -48 -55 -60 0
-421 -48 -55 -61 0
-421 -48 -55 -62 0
-421 -49 -55 -61 0
-421 -49 -55 -62 0
-421 -50 -55 -62 0
-421 -48 -74 -79 0
-421 -48 -74 -80 0
-421 -48 -74 -81 0
-421 -49 -74 -80 0
-421 -49 -74 -81 0
-421 -50 -74 -81 0
-421 -48 -75 -79 0
-421 -48 -75 -80 0
-421 -48 -75 -81 0
-421 -49 -75 -80 0
-421 -49 -75 -81 0
-421 -50 -75 -81 0
-421 -48 -76 -79 0
-421 -48 -76 -80 0
-421 -48 -76 -81 0
-421 -49 -76 -80 0
-421 -49 -76 -81 0
-421 -50 -76 -81 0
-421 106 0
-421 -48 111 0
-421 -49 112 0
-421 -50 113 0
-421 -93 0
-422 73 0
-422 -51 0
-422 -66 -48 -70 0
-422 -66 -49 -71 0
-422 -66 -50 -72 0
-422 -42 0
-422 -43 0
-422 -46 0
-422 -47 0
-422 -48 -55 -60 0
-422 -48 -55 -61 0
-422 -48 -55 -62 0
-422 -49 -55 -61 0
-422 -49 -55 -62 0
-422 -50 -55 -62 0
-422 -48 -56 -60 0
-422 -48 -56 -61 0
-422 -48 -56 -62 0
-422 -49 -56 -61 0
-422 -49 -56 -62 0
-422 -50 -56 -62 0
-422 -48 -74 -79 0
-422 -48 -74 -80 0
-422 -48 -74 -81 0
-422 -49 -74 -80 0
-422 -49 -74 -81 0
-422 -50 -74 -81 0
-422 -48 -75 -79 0
-422 -48 -75 -80 0
-422 -48 -75 -81 0
-422 -49 -75 -80 0
-422 -49 -75 -81 0
-422 -50 -75 -81 0
-422 -48 -76 -79 0
-422 -48 -76 -80 0
-422 -48 -76 -81 0
-422 -49 -76 -80 0
-422 -49 -76 -81 0
-422 -50 -76 -81 0
-422 -48 -77 -79 0
-422 -48 -77 -80 0
-422 -48 -77 -81 0
-422 -49 -77 -80 0
-422 -49 -77 -81 0
-422 -50 -77 -81 0
-422 107 0
-422 -48 111 0
-422 -49 112 0
-422 -50 113 0
-422 -93 0
-423 73 0
-423 -51 0
-423 -67 -48 -70 0
-423 -67 -49 -71 0
-423 -67 -50 -72 0
-423 -42 0
-423 -43 0
-423 -44 0
-423 -47 0
-423 -48 -56 -60 0
-423 -48 -56 -61 0
-423 -48 -56 -62 0
-423 -49 -56 -61 0
-423 -49 -56 -62 0
-423 -50 -56 -62 0
-423 -48 -57 -60 0
-423 -48 -57 -61 0
-423 -48 -57 -62 0
-423 -49 -57 -61 0
-423 -49 -57 -62 0
-423 -50 -57 -62 0
-423 -48 -75 -79 0
-423 -48 -75 -80 0
-423 -48 -75 -81 0
-423 -49 -75 -80 0
-423 -49 -75 -81 0
-423 -50 -75 -81 0
-423 -48 -76 -79 0
-423 -48 -76 -80 0
-423 -48 -76 -81 0
-423 -49 -76 -80 0
-423 -49 -76 -81 0
-423 -50 -76 -81 0
-423 -48 -77 -79 0
-423 -48 -77 -80 0
-423 -48 -77 -81 0
-423 -49 -77 -80 0
-423 -49 -77 -81 0
-423 -50 -77 -81 0
-423 108 0
-423 -48 111 0
-423 -49 112 0
-423 -50 113 0
-423 -93 0
-424 73 0
-424 -51 0
-424 -68 -48 -70 0
-424 -68 -49 -71 0
-424 -68 -50 -72 0
-424 -42 0
-424 -43 0
-424 -44 0
-424 -45 0
-424 -48 -57 -60 0
-424 -48 -57 -61 0
-424 -48 -57 -62 0
-424 -49 -57 -61 0
-424 -49 -57 -62 0
-424 -50 -57 -62 0
-424 -48 -58 -60 0
-424 -48 -58 -61 0
-424 -48 -58 -62 0
-424 -49 -58 -61 0
-424 -49 -58 -62 0
-424 -50 -58 -62 0
-424 -48 -76 -79 0
-424 -48 -76 -80 0
-424 -48 -76 -81 0
-424 -49 -76 -80 0
-424 -49 -76 -81 0
-424 -50 -76 -81 0
-424 -48 -77 -79 0
-424 -48 -77 -80 0
-424 -48 -77 -81 0
-424 -49 -77 -80 0
-424 -49 -77 -81 0
-424 -50 -77 -81 0
-424 109 0
-424 -48 111 0
-424 -49 112 0
-424 -50 113 0
-424 -93 0
-425 73 0
-425 -62 0
-425 -64 -59 -70 0
-425 -64 -60 -71 0
-425 -64 -61 -72 0
-425 -55 0
-425 -56 0
-425 -57 0
-425 -58 0
-425 -59 -42 -49 0
-425 -59 -42 -50 0
-425 -59 -42 -51 0
-425 -60 -42 -50 0
-425 -60 -42 -51 0
-425 -61 -42 -51 0
-425 -59 -43 -49 0
-425 -59 -43 -50 0
-425 -59 -43 -51 0
-425 -60 -43 -50 0
-425 -60 -43 -51 0
-425 -61 -43 -51 0
-425 -59 -74 -79 0
-425 -59 -74 -80 0
-425 -59 -74 -81 0
-425 -60 -74 -80 0
-425 -60 -74 -81 0
-425 -61 -74 -81 0
-425 -59 -75 -79 0
-425 -59 -75 -80 0
-425 -59 -75 -81 0
-425 -60 -75 -80 0
-425 -60 -75 -81 0
-425 -61 -75 -81 0
-425 105 0
-425 -59 111 0
-425 -60 112 0
-425 -61 113 0
-425 -104 0
-426 73 0
-426 -62 0
-426 -65 -59 -70 0
-426 -65 -60 -71 0
-426 -65 -61 -72 0
-426 -53 0
-426 -56 0
-426 -57 0
-426 -58 0
-426 -59 -43 -49 0
-426 -59 -43 -50 0
-426 -59 -43 -51 0
-426 -60 -43 -50 0
-426 -60 -43 -51 0
-426 -61 -43 -51 0
-426 -59 -44 -49 0
-426 -59 -44 -50 0
-426 -59 -44 -51 0
-426 -60 -44 -50 0
-426 -60 -44 -51 0
-426 -61 -44 -51 0
-426 -59 -74 -79 0
-426 -59 -74 -80 0
-426 -59 -74 -81 0
-426 -60 -74 -80 0
-426 -60 -74 -81 0
-426 -61 -74 -81 0
-426 -59 -75 -79 0
-426 -59 -75 -80 0
-426 -59 -75 -81 0
-426 -60 -75 -80 0
-426 -60 -75 -81 0
-426 -61 -75 -81 0
-426 -59 -76 -79 0
-426 -59 -76 -80 0
-426 -59 -76 -81 0
-426 -60 -76 -80 0
-426 -60 -76 -81 0
-426 -61 -76 -81 0
-426 106 0
-426 -59 111 0
-426 -60 112 0
-426 -61 113 0
-426 -104 0
-427 73 0
-427 -62 0
-427 -66 -59 -70 0
-427 -66 -60 -71 0
-427 -66 -61 -72 0
-427 -53 0
-427 -54 0
-427 -57 0
-427 -58 0
-427 -59 -44 -49 0
-427 -59 -44 -50 0
-427 -59 -44 -51 0
-427 -60 -44 -50 0
-427 -60 -44 -51 0
-427 -61 -44 -51 0
-427 -59 -45 -49 0
-427 -59 -45 -50 0
-427 -59 -45 -51 0
-427 -60 -45 -50 0
-427 -60 -45 -51 0
-427 -61 -45 -51 0
-427 -59 -74 -79 0
-427 -59 -74 -80 0
-427 -59 -74 -81 0
-427 -60 -74 -80 0
-427 -60 -74 -81 0
-427 -61 -74 -81 0
-427 -59 -75 -79 0
-427 -59 -75 -80 0
-427 -59 -75 -81 0
-427 -60 -75 -80 0
-427 -60 -75 -81 0
-427 -61 -75 -81 0
-427 -59 -76 -79 0
-427 -59 -76 -80 0
-427 -59 -76 -81 0
-427 -60 -76 -80 0
-427 -60 -76 -81 0
-427 -61 -76 -81 0
-427 -59 -77 -79 0
-427 -59 -77 -80 0
-427 -59 -77 -81 0
-427 -60 -77 -80 0
-427 -60 -77 -81 0
-427 -61 -77 -81 0
-427 107 0
-427 -59 111 0
-427 -60 112 0
-427 -61 113 0
-427 -104 0
-428 73 0
-428 -62 0
-428 -67 -59 -70 0
-428 -67 -60 -71 0
-428 -67 -61 -72 0
-428 -53 0
-428 -54 0
-428 -55 0
-428 -58 0
-428 -59 -45 -49 0
-428 -59 -45 -50 0
-428 -59 -45 -51 0
-428 -60 -45 -50 0
-428 -60 -45 -51 0
-428 -61 -45 -51 0
-428 -59 -46 -49 0
-428 -59 -46 -50 0
-428 -59 -46 -51 0
-428 -60 -46 -50 0
-428 -60 -46 -51 0
-428 -61 -46 -51 0
-428 -59 -75 -79 0
-428 -59 -75 -80 0
-428 -59 -75 -81 0
-428 -60 -75 -80 0
-428 -60 -75 -81 0
-428 -61 -75 -81 0
-428 -59 -76 -79 0
-428 -59 -76 -80 0
-428 -59 -76 -81 0
-428 -60 -76 -80 0
-428 -60 -76 -81 0
-428 -61 -76 -81 0
-428 -59 -77 -79 0
-428 -59 -77 -80 0
-428 -59 -77 -81 0
-428 -60 -77 -80 0
-428 -60 -77 -81 0
-428 -61 -77 -81 0
-428 108 0
-428 -59 111 0
-428 -60 112 0
-428 -61 113 0
-428 -104 0
-429 73 0
-429 -62 0
-429 -68 -59 -70 0
-429 -68 -60 -71 0
-429 -68 -61 -72 0
-429 -53 0
-429 -54 0
-429 -55 0
-429 -56 0
-429 -59 -46 -49 0
-429 -59 -46 -50 0
-429 -59 -46 -51 0
-429 -60 -46 -50 0
-429 -60 -46 -51 0
-429 -61 -46 -51 0
-429 -59 -47 -49 0
-429 -59 -47 -50 0
-429 -59 -47 -51 0
-429 -60 -47 -50 0
-429 -60 -47 -51 0
-429 -61 -47 -51 0
-429 -59 -76 -79 0
-429 -59 -76 -80 0
-429 -59 -76 -81 0
-429 -60 -76 -80 0
-429 -60 -76 -81 0
-429 -61 -76 -81 0
-429 -59 -77 -79 0
-429 -59 -77 -80 0
-429 -59 -77 -81 0
-429 -60 -77 -80 0
-429 -60 -77 -81 0
-429 -61 -77 -81 0
-429 109 0
-429 -59 111 0
-429 -60 112 0
-429 -61 113 0
-429 -104 0
-430 73 0
-430 -81 0
-430 -64 -78 -70 0
-430 -64 -79 -71 0
-430 -64 -80 -72 0
-430 -76 0
-430 -77 0
-430 -78 -42 -49 0
-430 -78 -42 -50 0
-430 -78 -42 -51 0
-430 -79 -42 -50 0
-430 -79 -42 -51 0
-430 -80 -42 -51 0
-430 -78 -43 -49 0
-430 -78 -43 -50 0
-430 -78 -43 -51 0
-430 -79 -43 -50 0
-430 -79 -43 -51 0
-430 -80 -43 -51 0
-430 -78 -53 -60 0
-430 -78 -53 -61 0
-430 -78 -53 -62 0
-430 -79 -53 -61 0
-430 -79 -53 -62 0
-430 -80 -53 -62 0
-430 -78 -54 -60 0
-430 -78 -54 -61 0
-430 -78 -54 -62 0
-430 -79 -54 -61 0
-430 -79 -54 -62 0
-430 -80 -54 -62 0
-430 105 0
-430 -78 111 0
-430 -79 112 0
-430 -80 113 0
-430 -123 0
-431 73 0
-431 -81 0
-431 -65 -78 -70 0
-431 -65 -79 -71 0
-431 -65 -80 -72 0
-431 -77 0
-431 -78 -43 -49 0
-431 -78 -43 -50 0
-431 -78 -43 -51 0
-431 -79 -43 -50 0
-431 -79 -43 -51 0
-431 -80 -43 -51 0
-431 -78 -44 -49 0
-431 -78 -44 -50 0
-431 -78 -44 -51 0
-431 -79 -44 -50 0
-431 -79 -44 -51 0
-431 -80 -44 -51 0
-431 -78 -54 -60 0
-431 -78 -54 -61 0
-431 -78 -54 -62 0
-431 -79 -54 -61 0
-431 -79 -54 -62 0
-431 -80 -54 -62 0
-431 -78 -55 -60 0
-431 -78 -55 -61 0
-431 -78 -55 -62 0
-431 -79 -55 -61 0
-431 -79 -55 -62 0
-431 -80 -55 -62 0
-431 106 0
-431 -78 111 0
-431 -79 112 0
-431 -80 113 0
-431 -123 0
-432 73 0
-432 -81 0
-432 -66 -78 -70 0
-432 -66 -79 -71 0
-432 -66 -80 -72 0
-432 -78 -44 -49 0
-432 -78 -44 -50 0
-432 -78 -44 -51 0
-432 -79 -44 -50 0
-432 -79 -44 -51 0
-432 -80 -44 -51 0
-432 -78 -45 -49 0
-432 -78 -45 -50 0
-432 -78 -45 -51 0
-432 -79 -45 -50 0
-432 -79 -45 -51 0
-432 -80 -45 -51 0
-432 -78 -55 -60 0
-432 -78 -55 -61 0
-432 -78 -55 -62 0
-432 -79 -55 -61 0
-432 -79 -55 -62 0
-432 -80 -55 -62 0
-432 -78 -56 -60 0
-432 -78 -56 -61 0
-432 -78 -56 -62 0
-432 -79 -56 -61 0
-432 -79 -56 -62 0
-432 -80 -56 -62 0
-432 107 0
-432 -78 111 0
-432 -79 112 0
-432 -80 113 0
-432 -123 0
-433 73 0
-433 -81 0
-433 -67 -78 -70 0
-433 -67 -79 -71 0
-433 -67 -80 -72 0
-433 -74 0
-433 -78 -45 -49 0
-433 -78 -45 -50 0
-433 -78 -45 -51 0
-433 -79 -45 -50 0
-433 -79 -45 -51 0
-433 -80 -45 -51 0
-433 -78 -46 -49 0
-433 -78 -46 -50 0
-433 -78 -46 -51 0
-433 -79 -46 -50 0
-433 -79 -46 -51 0
-433 -80 -46 -51 0
-433 -78 -56 -60 0
-433 -78 -56 -61 0
-433 -78 -56 -62 0
-433 -79 -56 -61 0
-433 -79 -56 -62 0
-433 -80 -56 -62 0
-433 -78 -57 -60 0
-433 -78 -57 -61 0
-433 -78 -57 -62 0
-433 -79 -57 -61 0
-433 -79 -57 -62 0
-433 -80 -57 -62 0
-433 108 0
-433 -78 111 0
-433 -79 112 0
-433 -80 113 0
-433 -123 0
-434 73 0
-434 -81 0
-434 -68 -78 -70 0
-434 -68 -79 -71 0
-434 -68 -80 -72 0
-434 -74 0
-434 -75 0
-434 -78 -46 -49 0
-434 -78 -46 -50 0
-434 -78 -46 -51 0
-434 -79 -46 -50 0
-434 -79 -46 -51 0
-434 -80 -46 -51 0
-434 -78 -47 -49 0
-434 -78 -47 -50 0
-434 -78 -47 -51 0
-434 -79 -47 -50 0
-434 -79 -47 -51 0
-434 -80 -47 -51 0
-434 -78 -57 -60 0
-434 -78 -57 -61 0
-434 -78 -57 -62 0
-434 -79 -57 -61 0
-434 -79 -57 -62 0
-434 -80 -57 -62 0
-434 -78 -58 -60 0
-434 -78 -58 -61 0
-434 -78 -58 -62 0
-434 -79 -58 -61 0
-434 -79 -58 -62 0
-434 -80 -58 -62 0
-434 109 0
-434 -78 111 0
-434 -79 112 0
-434 -80 113 0
-434 -123 0
-435 73 0
-435 -64 -69 0
-435 -42 -48 0
-435 -42 -49 0
-435 -42 -50 0
-435 -42 -51 0
-435 -43 -48 0
-435 -43 -49 0
-435 -43 -50 0
-435 -43 -51 0
-435 -53 -59 0
-435 -53 -60 0
-435 -53 -61 0
-435 -53 -62 0
-435 -54 -59 0
-435 -54 -60 0
-435 -54 -61 0
-435 -54 -62 0
-435 -74 -78 0
-435 -74 -79 0
-435 -74 -80 0
-435 -74 -81 0
-435 -75 -78 0
-435 -75 -79 0
-435 -75 -80 0
-435 -75 -81 0
-435 105 0
-435 110 0
-436 73 0
-436 -65 -69 0
-436 -43 -48 0
-436 -43 -49 0
-436 -43 -50 0
-436 -43 -51 0
-436 -44 -48 0
-436 -44 -49 0
-436 -44 -50 0
-436 -44 -51 0
-436 -54 -59 0
-436 -54 -60 0
-436 -54 -61 0
-436 -54 -62 0
-436 -55 -59 0
-436 -55 -60 0
-436 -55 -61 0
-436 -55 -62 0
-436 -74 -78 0
-436 -74 -79 0
-436 -74 -80 0
-436 -74 -81 0
-436 -75 -78 0
-436 -75 -79 0
-436 -75 -80 0
-436 -75 -81 0
-436 -76 -78 0
-436 -76 -79 0
-436 -76 -80 0
-436 -76 -81 0
-436 106 0
-436 110 0
-437 73 0
-437 -66 -69 0
-437 -44 -48 0
-437 -44 -49 0
-437 -44 -50 0
-437 -44 -51 0
-437 -45 -48 0
-437 -45 -49 0
-437 -45 -50 0
-437 -45 -51 0
-437 -55 -59 0
-437 -55 -60 0
-437 -55 -61 0
-437 -55 -62 0
-437 -56 -59 0
-437 -56 -60 0
-437 -56 -61 0
-437 -56 -62 0
-437 -74 -78 0
-437 -74 -79 0
-437 -74 -80 0
-437 -74 -81 0
-437 -75 -78 0
-437 -75 -79 0
-437 -75 -80 0
-437 -75 -81 0
-437 -76 -78 0
-437 -76 -79 0
-437 -76 -80 0
-437 -76 -81 0
-437 -77 -78 0
-437 -77 -79 0
-437 -77 -80 0
-437 -77 -81 0
-437 107 0
-437 110 0
-438 73 0
-438 -67 -69 0
-438 -45 -48 0
-438 -45 -49 0
-438 -45 -50 0
-438 -45 -51 0
-438 -46 -48 0
-438 -46 -49 0
-438 -46 -50 0
-438 -46 -51 0
-438 -56 -59 0
-438 -56 -60 0
-438 -56 -61 0
-438 -56 -62 0
-438 -57 -59 0
-438 -57 -60 0
-438 -57 -61 0
-438 -57 -62 0
-438 -75 -78 0
-438 -75 -79 0
-438 -75 -80 0
-438 -75 -81 0
-438 -76 -78 0
-438 -76 -79 0
-438 -76 -80 0
-438 -76 -81 0
-438 -77 -78 0
-438 -77 -79 0
-438 -77 -80 0
-438 -77 -81 0
-438 108 0
-438 110 0
-439 73 0
-439 -68 -69 0
-439 -46 -48 0
-439 -46 -49 0
-439 -46 -50 0
-439 -46 -51 0
-439 -47 -48 0
-439 -47 -49 0
-439 -47 -50 0
-439 -47 -51 0
-439 -57 -59 0
-439 -57 -60 0
-439 -57 -61 0
-439 -57 -62 0
-439 -58 -59 0
-439 -58 -60 0
-439 -58 -61 0
-439 -58 -62 0
-439 -76 -78 0
-439 -76 -79 0
-439 -76 -80 0
-439 -76 -81 0
-439 -77 -78 0
-439 -77 -79 0
-439 -77 -80 0
-439 -77 -81 0
-439 109 0
-439 110 0
-440 82 0
-440 -51 0
-440 -74 -48 -79 0
-440 -74 -49 -80 0
-440 -74 -50 -81 0
-440 -45 0
-440 -46 0
-440 -47 0
-440 -48 -53 -60 0
-440 -48 -53 -61 0
-440 -48 -53 -62 0
-440 -49 -53 -61 0
-440 -49 -53 -62 0
-440 -50 -53 -62 0
-440 -48 -54 -60 0
-440 -48 -54 -61 0
-440 -48 -54 -62 0
-440 -49 -54 -61 0
-440 -49 -54 -62 0
-440 -50 -54 -62 0
-440 -48 -55 -60 0
-440 -48 -55 -61 0
-440 -48 -55 -62 0
-440 -49 -55 -61 0
-440 -49 -55 -62 0
-440 -50 -55 -62 0
-440 -48 -64 -70 0
-440 -48 -64 -71 0
-440 -48 -64 -72 0
-440 -49 -64 -71 0
-440 -49 -64 -72 0
-440 -50 -64 -72 0
-440 -48 -65 -70 0
-440 -48 -65 -71 0
-440 -48 -65 -72 0
-440 -49 -65 -71 0
-440 -49 -65 -72 0
-440 -50 -65 -72 0
-440 -48 -66 -70 0
-440 -48 -66 -71 0
-440 -48 -66 -72 0
-440 -49 -66 -71 0
-440 -49 -66 -72 0
-440 -50 -66 -72 0
-440 115 0
-440 -48 120 0
-440 -49 121 0
-440 -50 122 0
-440 -93 0
-441 82 0
-441 -51 0
-441 -75 -48 -79 0
-441 -75 -49 -80 0
-441 -75 -50 -81 0
-441 -42 0
-441 -46 0
-441 -47 0
-441 -48 -54 -60 0
-441 -48 -54 -61 0
-441 -48 -54 -62 0
-441 -49 -54 -61 0
-441 -49 -54 -62 0
-441 -50 -54 -62 0
-441 -48 -55 -60 0
-441 -48 -55 -61 0
-441 -48 -55 -62 0
-441 -49 -55 -61 0
-441 -49 -55 -62 0
-441 -50 -55 -62 0
-441 -48 -56 -60 0
-441 -48 -56 -61 0
-441 -48 -56 -62 0
-441 -49 -56 -61 0
-441 -49 -56 -62 0
-441 -50 -56 -62 0
-441 -48 -64 -70 0
-441 -48 -64 -71 0
-441 -48 -64 -72 0
-441 -49 -64 -71 0
-441 -49 -64 -72 0
-441 -50 -64 -72 0
-441 -48 -65 -70 0
-441 -48 -65 -71 0
-441 -48 -65 -72 0
-441 -49 -65 -71 0
-441 -49 -65 -72 0
-441 -50 -65 -72 0
-441 -48 -66 -70 0
-441 -48 -66 -71 0
-441 -48 -66 -72 0
-441 -49 -66 -71 0
-441 -49 -66 -72 0
-441 -50 -66 -72 0
-441 -48 -67 -70 0
-441 -48 -67 -71 0
-441 -48 -67 -72 0
-441 -49 -67 -71 0
-441 -49 -67 -72 0
-441 -50 -67 -72 0
-441 116 0
-441 -48 120 0
-441 -49 121 0
-441 -50 122 0
-441 -93 0
-442 82 0
-442 -51 0
-442 -76 -48 -79 0
-442 -76 -49 -80 0
-442 -76 -50 -81 0
-442 -42 0
-442 -43 0
-442 -47 0
-442 -48 -55 -60 0
-442 -48 -55 -61 0
-442 -48 -55 -62 0
-442 -49 -55 -61 0
-442 -49 -55 -62 0
-442 -50 -55 -62 0
-442 -48 -56 -60 0
-442 -48 -56 -61 0
-442 -48 -56 -62 0
-442 -49 -56 -61 0
-442 -49 -56 -62 0
-442 -50 -56 -62 0
-442 -48 -57 -60 0
-442 -48 -57 -61 0
-442 -48 -57 -62 0
-442 -49 -57 -61 0
-442 -49 -57 -62 0
-442 -50 -57 -62 0
-442 -48 -65 -70 0
-442 -48 -65 -71 0
-442 -48 -65 -72 0
-442 -49 -65 -71 0
-442 -49 -65 -72 0
-442 -50 -65 -72 0
-442 -48 -66 -70 0
-442 -48 -66 -71 0
-442 -48 -66 -72 0
-442 -49 -66 -71 0
-442 -49 -66 -72 0
-442 -50 -66 -72 0
-442 -48 -67 -70 0
-442 -48 -67 -71 0
-442 -48 -67 -72 0
-442 -49 -67 -71 0
-442 -49 -67 -72 0
-442 -50 -67 -72 0
-442 -48 -68 -70 0
-442 -48 -68 -71 0
-442 -48 -68 -72 0
-442 -49 -68 -71 0
-442 -49 -68 -72 0
-442 -50 -68 -72 0
-442 117 0
-442 -48 120 0
-442 -49 121 0
-442 -50 122 0
-442 -93 0
-443 82 0
-443 -51 0
-443 -77 -48 -79 0
-443 -77 -49 -80 0
-443 -77 -50 -81 0
-443 -42 0
-443 -43 0
-443 -44 0
-443 -48 -56 -60 0
-443 -48 -56 -61 0
-443 -48 -56 -62 0
-443 -49 -56 -61 0
-443 -49 -56 -62 0
-443 -50 -56 -62 0
-443 -48 -57 -60 0
-443 -48 -57 -61 0
-443 -48 -57 -62 0
-443 -49 -57 -61 0
-443 -49 -57 -62 0
-443 -50 -57 -62 0
-443 -48 -58 -60 0
-443 -48 -58 -61 0
-443 -48 -58 -62 0
-443 -49 -58 -61 0
-443 -49 -58 -62 0
-443 -50 -58 -62 0
-443 -48 -66 -70 0
-443 -48 -66 -71 0
-443 -48 -66 -72 0
-443 -49 -66 -71 0
-443 -49 -66 -72 0
-443 -50 -66 -72 0
-443 -48 -67 -70 0
-443 -48 -67 -71 0
-443 -48 -67 -72 0
-443 -49 -67 -71 0
-443 -49 -67 -72 0
-443 -50 -67 -72 0
-443 -48 -68 -70 0
-443 -48 -68 -71 0
-443 -48 -68 -72 0
-443 -49 -68 -71 0
-443 -49 -68 -72 0
-443 -50 -68 -72 0
-443 118 0
-443 -48 120 0
-443 -49 121 0
-443 -50 122 0
-443 -93 0
-444 82 0
-444 -62 0
-444 -74 -59 -79 0
-444 -74 -60 -80 0
-444 -74 -61 -81 0
-444 -56 0
-444 -57 0
-444 -58 0
-444 -59 -42 -49 0
-444 -59 -42 -50 0
-444 -59 -42 -51 0
-444 -60 -42 -50 0
-444 -60 -42 -51 0
-444 -61 -42 -51 0
-444 -59 -43 -49 0
-444 -59 -43 -50 0
-444 -59 -43 -51 0
-444 -60 -43 -50 0
-444 -60 -43 -51 0
-444 -61 -43 -51 0
-444 -59 -44 -49 0
-444 -59 -44 -50 0
-444 -59 -44 -51 0
-444 -60 -44 -50 0
-444 -60 -44 -51 0
-444 -61 -44 -51 0
-444 -59 -64 -70 0
-444 -59 -64 -71 0
-444 -59 -64 -72 0
-444 -60 -64 -71 0
-444 -60 -64 -72 0
-444 -61 -64 -72 0
-444 -59 -65 -70 0
-444 -59 -65 -71 0
-444 -59 -65 -72 0
-444 -60 -65 -71 0
-444 -60 -65 -72 0
-444 -61 -65 -72 0
-444 -59 -66 -70 0
-444 -59 -66 -71 0
-444 -59 -66 -72 0
-444 -60 -66 -71 0
-444 -60 -66 -72 0
-444 -61 -66 -72 0
-444 115 0
-444 -59 120 0
-444 -60 121 0
-444 -61 122 0
-444 -104 0
-445 82 0
-445 -62 0
-445 -75 -59 -79 0
-445 -75 -60 -80 0
-445 -75 -61 -81 0
-445 -53 0
-445 -57 0
-445 -58 0
-445 -59 -43 -49 0
-445 -59 -43 -50 0
-445 -59 -43 -51 0
-445 -60 -43 -50 0
-445 -60 -43 -51 0
-445 -61 -43 -51 0
-445 -59 -44 -49 0
-445 -59 -44 -50 0
-445 -59 -44 -51 0
-445 -60 -44 -50 0
-445 -60 -44 -51 0
-445 -61 -44 -51 0
-445 -59 -45 -49 0
-445 -59 -45 -50 0
-445 -59 -45 -51 0
-445 -60 -45 -50 0
-445 -60 -45 -51 0
-445 -61 -45 -51 0
-445 -59 -64 -70 0
-445 -59 -64 -71 0
-445 -59 -64 -72 0
-445 -60 -64 -71 0
-445 -60 -64 -72 0
-445 -61 -64 -72 0
-445 -59 -65 -70 0
-445 -59 -65 -71 0
-445 -59 -65 -72 0
-445 -60 -65 -71 0
-445 -60 -65 -72 0
-445 -61 -65 -72 0
-445 -59 -66 -70 0
-445 -59 -66 -71 0
-445 -59 -66 -72 0
-445 -60 -66 -71 0
-445 -60 -66 -72 0
-445 -61 -66 -72 0
-445 -59 -67 -70 0
-445 -59 -67 -71 0
-445 -59 -67 -72 0
-445 -60 -67 -71 0
-445 -60 -67 -72 0
-445 -61 -67 -72 0
-445 116 0
-445 -59 120 0
-445 -60 121 0
-445 -61 122 0
-445 -104 0
-446 82 0
-446 -62 0
-446 -76 -59 -79 0
-446 -76 -60 -80 0
-446 -76 -61 -81 0
-446 -53 0
-446 -54 0
-446 -58 0
-446 -59 -44 -49 0
-446 -59 -44 -50 0
-446 -59 -44 -51 0
-446 -60 -44 -50 0
-446 -60 -44 -51 0
-446 -61 -44 -51 0
-446 -59 -45 -49 0
-446 -59 -45 -50 0
-446 -59 -45 -51 0
-446 -60 -45 -50 0
-446 -60 -45 -51 0
-446 -61 -45 -51 0
-446 -59 -46 -49 0
-446 -59 -46 -50 0
-446 -59 -46 -51 0
-446 -60 -46 -50 0
-446 -60 -46 -51 0
-446 -61 -46 -51 0
-446 -59 -65 -70 0
-446 -59 -65 -71 0
-446 -59 -65 -72 0
-446 -60 -65 -71 0
-446 -60 -65 -72 0
-446 -61 -65 -72 0
-446 -59 -66 -70 0
-446 -59 -66 -71 0
-446 -59 -66 -72 0
-446 -60 -66 -71 0
-446 -60 -66 -72 0
-446 -61 -66 -72 0
-446 -59 -67 -70 0
-446 -59 -67 -71 0
-446 -59 -67 -72 0
-446 -60 -67 -71 0
-446 -60 -67 -72 0
-446 -61 -67 -72 0
-446 -59 -68 -70 0
-446 -59 -68 -71 0
-446 -59 -68 -72 0
-446 -60 -68 -71 0
-446 -60 -68 -72 0
-446 -61 -68 -72 0
-446 117 0
-446 -59 120 0
-446 -60 121 0
-446 -61 122 0
-446 -104 0
-447 82 0
-447 -62 0
-447 -77 -59 -79 0
-447 -77 -60 -80 0
-447 -77 -61 -81 0
-447 -53 0
-447 -54 0
-447 -55 0
-447 -59 -45 -49 0
-447 -59 -45 -50 0
-447 -59 -45 -51 0
-447 -60 -45 -50 0
-447 -60 -45 -51 0
-447 -61 -45 -51 0
-447 -59 -46 -49 0
-447 -59 -46 -50 0
-447 -59 -46 -51 0
-447 -60 -46 -50 0
-447 -60 -46 -51 0
-447 -61 -46 -51 0
-447 -59 -47 -49 0
-447 -59 -47 -50 0
-447 -59 -47 -51 0
-447 -60 -47 -50 0
-447 -60 -47 -51 0
-447 -61 -47 -51 0
-447 -59 -66 -70 0
-447 -59 -66 -71 0
-447 -59 -66 -72 0
-447 -60 -66 -71 0
-447 -60 -66 -72 0
-447 -61 -66 -72 0
-447 -59 -67 -70 0
-447 -59 -67 -71 0
-447 -59 -67 -72 0
-447 -60 -67 -71 0
-447 -60 -67 -72 0
-447 -61 -67 -72 0
-447 -59 -68 -70 0
-447 -59 -68 -71 0
-447 -59 -68 -72 0
-447 -60 -68 -71 0
-447 -60 -68 -72 0
-447 -61 -68 -72 0
-447 118 0
-447 -59 120 0
-447 -60 121 0
-447 -61 122 0
-447 -104 0
-448 82 0
-448 -72 0
-448 -74 -69 -79 0
-448 -74 -70 -80 0
-448 -74 -71 -81 0
-448 -67 0
-448 -68 0
-448 -69 -42 -49 0
-448 -69 -42 -50 0
-448 -69 -42 -51 0
-448 -70 -42 -50 0
-448 -70 -42 -51 0
-448 -71 -42 -51 0
-448 -69 -43 -49 0
-448 -69 -43 -50 0
-448 -69 -43 -51 0
-448 -70 -43 -50 0
-448 -70 -43 -51 0
-448 -71 -43 -51 0
-448 -69 -44 -49 0
-448 -69 -44 -50 0
-448 -69 -44 -51 0
-448 -70 -44 -50 0
-448 -70 -44 -51 0
-448 -71 -44 -51 0
-448 -69 -53 -60 0
-448 -69 -53 -61 0
-448 -69 -53 -62 0
-448 -70 -53 -61 0
-448 -70 -53 -62 0
-448 -71 -53 -62 0
-448 -69 -54 -60 0
-448 -69 -54 -61 0
-448 -69 -54 -62 0
-448 -70 -54 -61 0
-448 -70 -54 -62 0
-448 -71 -54 -62 0
-448 -69 -55 -60 0
-448 -69 -55 -61 0
-448 -69 -55 -62 0
-448 -70 -55 -61 0
-448 -70 -55 -62 0
-448 -71 -55 -62 0
-448 115 0
-448 -69 120 0
-448 -70 121 0
-448 -71 122 0
-448 -114 0
-449 82 0
-449 -72 0
-449 -75 -69 -79 0
-449 -75 -70 -80 0
-449 -75 -71 -81 0
-449 -68 0
-449 -69 -43 -49 0
-449 -69 -43 -50 0
-449 -69 -43 -51 0
-449 -70 -43 -50 0
-449 -70 -43 -51 0
-449 -71 -43 -51 0
-449 -69 -44 -49 0
-449 -69 -44 -50 0
-449 -69 -44 -51 0
-449 -70 -44 -50 0
-449 -70 -44 -51 0
-449 -71 -44 -51 0
-449 -69 -45 -49 0
-449 -69 -45 -50 0
-449 -69 -45 -51 0
-449 -70 -45 -50 0
-449 -70 -45 -51 0
-449 -71 -45 -51 0
-449 -69 -54 -60 0
-449 -69 -54 -61 0
-449 -69 -54 -62 0
-449 -70 -54 -61 0
-449 -70 -54 -62 0
-449 -71 -54 -62 0
-449 -69 -55 -60 0
-449 -69 -55 -61 0
-449 -69 -55 -62 0
-449 -70 -55 -61 0
-449 -70 -55 -62 0
-449 -71 -55 -62 0
-449 -69 -56 -60 0
-449 -69 -56 -61 0
-449 -69 -56 -62 0
-449 -70 -56 -61 0
-449 -70 -56 -62 0
-449 -71 -56 -62 0
-449 116 0
-449 -69 120 0
-449 -70 121 0
-449 -71 122 0
-449 -114 0
-450 82 0
-450 -72 0
-450 -76 -69 -79 0
-450 -76 -70 -80 0
-450 -76 -71 -81 0
-450 -64 0
-450 -69 -44 -49 0
-450 -69 -44 -50 0
-450 -69 -44 -51 0
-450 -70 -44 -50 0
-450 -70 -44 -51 0
-450 -71 -44 -51 0
-450 -69 -45 -49 0
-450 -69 -45 -50 0
-450 -69 -45 -51 0
-450 -70 -45 -50 0
-450 -70 -45 -51 0
-450 -71 -45 -51 0
-450 -69 -46 -49 0
-450 -69 -46 -50 0
-450 -69 -46 -51 0
-450 -70 -46 -50 0
-450 -70 -46 -51 0
-450 -71 -46 -51 0
-450 -69 -55 -60 0
-450 -69 -55 -61 0
-450 -69 -55 -62 0
-450 -70 -55 -61 0
-450 -70 -55 -62 0
-450 -71 -55 -62 0
-450 -69 -56 -60 0
-450 -69 -56 -61 0
-450 -69 -56 -62 0
-450 -70 -56 -61 0
-450 -70 -56 -62 0
-450 -71 -56 -62 0
-450 -69 -57 -60 0
-450 -69 -57 -61 0
-450 -69 -57 -62 0
-450 -70 -57 -61 0
-450 -70 -57 -62 0
-450 -71 -57 -62 0
-450 117 0
-450 -69 120 0
-450 -70 121 0
-450 -71 122 0
-450 -114 0
-451 82 0
-451 -72 0
-451 -77 -69 -79 0
-451 -77 -70 -80 0
-451 -77 -71 -81 0
-451 -64 0
-451 -65 0
-451 -69 -45 -49 0
-451 -69 -45 -50 0
-451 -69 -45 -51 0
-451 -70 -45 -50 0
-451 -70 -45 -51 0
-451 -71 -45 -51 0
-451 -69 -46 -49 0
-451 -69 -46 -50 0
-451 -69 -46 -51 0
-451 -70 -46 -50 0
-451 -70 -46 -51 0
-451 -71 -46 -51 0
-451 -69 -47 -49 0
-451 -69 -47 -50 0
-451 -69 -47 -51 0
-451 -70 -47 -50 0
-451 -70 -47 -51 0
-451 -71 -47 -51 0
-451 -69 -56 -60 0
-451 -69 -56 -61 0
-451 -69 -56 -62 0
-451 -70 -56 -61 0
-451 -70 -56 -62 0
-451 -71 -56 -62 0
-451 -69 -57 -60 0
-451 -69 -57 -61 0
-451 -69 -57 -62 0
-451 -70 -57 -61 0
-451 -70 -57 -62 0
-451 -71 -57 -62 0
-451 -69 -58 -60 0
-451 -69 -58 -61 0
-451 -69 -58 -62 0
-451 -70 -58 -61 0
-451 -70 -58 -62 0
-451 -71 -58 -62 0
-451 118 0
-451 -69 120 0
-451 -70 121 0
-451 -71 122 0
-451 -114 0
-452 82 0
-452 -74 -78 0
-452 -42 -48 0
-452 -42 -49 0
-452 -42 -50 0
-452 -42 -51 0
-452 -43 -48 0
-452 -43 -49 0
-452 -43 -50 0
-452 -43 -51 0
-452 -44 -48 0
-452 -44 -49 0
-452 -44 -50 0
-452 -44 -51 0
-452 -53 -59 0
-452 -53 -60 0
-452 -53 -61 0
-452 -53 -62 0
-452 -54 -59 0
-452 -54 -60 0
-452 -54 -61 0
-452 -54 -62 0
-452 -55 -59 0
-452 -55 -60 0
-452 -55 -61 0
-452 -55 -62 0
-452 -64 -69 0
-452 -64 -70 0
-452 -64 -71 0
-452 -64 -72 0
-452 -65 -69 0
-452 -65 -70 0
-452 -65 -71 0
-452 -65 -72 0
-452 -66 -69 0
-452 -66 -70 0
-452 -66 -71 0
-452 -66 -72 0
-452 115 0
-452 119 0
-453 82 0
-453 -75 -78 0
-453 -43 -48 0
-453 -43 -49 0
-453 -43 -50 0
-453 -43 -51 0
-453 -44 -48 0
-453 -44 -49 0
-453 -44 -50 0
-453 -44 -51 0
-453 -45 -48 0
-453 -45 -49 0
-453 -45 -50 0
-453 -45 -51 0
-453 -54 -59 0
-453 -54 -60 0
-453 -54 -61 0
-453 -54 -62 0
-453 -55 -59 0
-453 -55 -60 0
-453 -55 -61 0
-453 -55 -62 0
-453 -56 -59 0
-453 -56 -60 0
-453 -56 -61 0
-453 -56 -62 0
-453 -64 -69 0
-453 -64 -70 0
-453 -64 -71 0
-453 -64 -72 0
-453 -65 -69 0
-453 -65 -70 0
-453 -65 -71 0
-453 -65 -72 0
-453 -66 -69 0
-453 -66 -70 0
-453 -66 -71 0
-453 -66 -72 0
-453 -67 -69 0
-453 -67 -70 0
-453 -67 -71 0
-453 -67 -72 0
-453 116 0
-453 119 0
-454 82 0
-454 -76 -78 0
-454 -44 -48 0
-454 -44 -49 0
-454 -44 -50 0
-454 -44 -51 0
-454 -45 -48 0
-454 -45 -49 0
-454 -45 -50 0
-454 -45 -51 0
-454 -46 -48 0
-454 -46 -49 0
-454 -46 -50 0
-454 -46 -51 0
-454 -55 -59 0
-454 -55 -60 0
-454 -55 -61 0
-454 -55 -62 0
-454 -56 -59 0
-454 -56 -60 0
-454 -56 -61 0
-454 -56 -62 0
-454 -57 -59 0
-454 -57 -60 0
-454 -57 -61 0
-454 -57 -62 0
-454 -65 -69 0
-454 -65 -70 0
-454 -65 -71 0
-454 -65 -72 0
-454 -66 -69 0
-454 -66 -70 0
-454 -66 -71 0
-454 -66 -72 0
-454 -67 -69 0
-454 -67 -70 0
-454 -67 -71 0
-454 -67 -72 0
-454 -68 -69 0
-454 -68 -70 0
-454 -68 -71 0
-454 -68 -72 0
-454 117 0
-454 119 0
-455 82 0
-455 -77 -78 0
-455 -45 -48 0
-455 -45 -49 0
-455 -45 -50 0
-455 -45 -51 0
-455 -46 -48 0
-455 -46 -49 0
-455 -46 -50 0
-455 -46 -51 0
-455 -47 -48 0
-455 -47 -49 0
-455 -47 -50 0
-455 -47 -51 0
-455 -56 -59 0
-455 -56 -60 0
-455 -56 -61 0
-455 -56 -62 0
-455 -57 -59 0
-455 -57 -60 0
-455 -57 -61 0
-455 -57 -62 0
-455 -58 -59 0
-455 -58 -60 0
-455 -58 -61 0
-455 -58 -62 0
-455 -66 -69 0
-455 -66 -70 0
-455 -66 -71 0
-455 -66 -72 0
-455 -67 -69 0
-455 -67 -70 0
-455 -67 -71 0
-455 -67 -72 0
-455 -68 -69 0
-455 -68 -70 0
-455 -68 -71 0
-455 -68 -72 0
-455 118 0
-455 119 0
-456 93 0
-456 -103 0
-456 -83 -100 -90 0
-456 -83 -101 -91 0
-456 -83 -102 -92 0
-456 -95 0
-456 -96 0
-456 -97 0
-456 -98 0
-456 -99 0
-456 -100 -105 -111 0
-456 -100 -105 -112 0
-456 -100 -105 -113 0
-456 -101 -105 -112 0
-456 -101 -105 -113 0
-456 -102 -105 -113 0
-456 -100 -115 -120 0
-456 -100 -115 -121 0
-456 -100 -115 -122 0
-456 -101 -115 -121 0
-456 -101 -115 -122 0
-456 -102 -115 -122 0
-456 124 0
-456 -100 131 0
-456 -101 132 0
-456 -102 133 0
-456 -145 0
-457 93 0
-457 -103 0
-457 -84 -100 -90 0
-457 -84 -101 -91 0
-457 -84 -102 -92 0
-457 -94 0
-457 -96 0
-457 -97 0
-457 -98 0
-457 -99 0
-457 -100 -105 -111 0
-457 -100 -105 -112 0
-457 -100 -105 -113 0
-457 -101 -105 -112 0
-457 -101 -105 -113 0
-457 -102 -105 -113 0
-457 -100 -106 -111 0
-457 -100 -106 -112 0
-457 -100 -106 -113 0
-457 -101 -106 -112 0
-457 -101 -106 -113 0
-457 -102 -106 -113 0
-457 -100 -115 -120 0
-457 -100 -115 -121 0
-457 -100 -115 -122 0
-457 -101 -115 -121 0
-457 -101 -115 -122 0
-457 -102 -115 -122 0
-457 -100 -116 -120 0
-457 -100 -116 -121 0
-457 -100 -116 -122 0
-457 -101 -116 -121 0
-457 -101 -116 -122 0
-457 -102 -116 -122 0
-457 125 0
-457 -100 131 0
-457 -101 132 0
-457 -102 133 0
-457 -145 0
-458 93 0
-458 -103 0
-458 -85 -100 -90 0
-458 -85 -101 -91 0
-458 -85 -102 -92 0
-458 -94 0
-458 -95 0
-458 -97 0
-458 -98 0
-458 -99 0
-458 -100 -106 -111 0
-458 -100 -106 -112 0
-458 -100 -106 -113 0
-458 -101 -106 -112 0
-458 -101 -106 -113 0
-458 -102 -106 -113 0
-458 -100 -107 -111 0
-458 -100 -107 -112 0
-458 -100 -107 -113 0
-458 -101 -107 -112 0
-458 -101 -107 -113 0
-458 -102 -107 -113 0
-458 -100 -115 -120 0
-458 -100 -115 -121 0
-458 -100 -115 -122 0
-458 -101 -115 -121 0
-458 -101 -115 -122 0
-458 -102 -115 -122 0
-458 -100 -116 -120 0
-458 -100 -116 -121 0
-458 -100 -116 -122 0
-458 -101 -116 -121 0
-458 -101 -116 -122 0
-458 -102 -116 -122 0
-458 -100 -117 -120 0
-458 -100 -117 -121 0
-458 -100 -117 -122 0
-458 -101 -117 -121 0
-458 -101 -117 -122 0
-458 -102 -117 -122 0
-458 126 0
-458 -100 131 0
-458 -101 132 0
-458 -102 133 0
-458 -145 0
-459 93 0
-459 -103 0
-459 -86 -100 -90 0
-459 -86 -101 -91 0
-459 -86 -102 -92 0
-459 -94 0
-459 -95 0
-459 -96 0
-459 -98 0
-459 -99 0
-459 -100 -107 -111 0
-459 -100 -107 -112 0
-459 -100 -107 -113 0
-459 -101 -107 -112 0
-459 -101 -107 -113 0
-459 -102 -107 -113 0
-459 -100 -108 -111 0
-459 -100 -108 -112 0
-459 -100 -108 -113 0
-459 -101 -108 -112 0
-459 -101 -108 -113 0
-459 -102 -108 -113 0
-459 -100 -116 -120 0
-459 -100 -116 -121 0
-459 -100 -116 -122 0
-459 -101 -116 -121 0
-459 -101 -116 -122 0
-459 -102 -116 -122 0
-459 -100 -117 -120 0
-459 -100 -117 -121 0
-459 -100 -117 -122 0
-459 -101 -117 -121 0
-459 -101 -117 -122 0
-459 -102 -117 -122 0
-459 -100 -118 -120 0
-459 -100 -118 -121 0
-459 -100 -118 -122 0
-459 -101 -118 -121 0
-459 -101 -118 -122 0
-459 -102 -118 -122 0
-459 127 0
-459 -100 131 0
-459 -101 132 0
-459 -102 133 0
-459 -145 0
-460 93 0
-460 -103 0
-460 -87 -100 -90 0
-460 -87 -101 -91 0
-460 -87 -102 -92 0
-460 -94 0
-460 -95 0
-460 -96 0
-460 -97 0
-460 -99 0
-460 -100 -108 -111 0
-460 -100 -108 -112 0
-460 -100 -108 -113 0
-460 -101 -108 -112 0
-460 -101 -108 -113 0
-460 -102 -108 -113 0
-460 -100 -109 -111 0
-460 -100 -109 -112 0
-460 -100 -109 -113 0
-460 -101 -109 -112 0
-460 -101 -109 -113 0
-460 -102 -109 -113 0
-460 -100 -117 -120 0
-460 -100 -117 -121 0
-460 -100 -117 -122 0
-460 -101 -117 -121 0
-460 -101 -117 -122 0
-460 -102 -117 -122 0
-460 -100 -118 -120 0
-460 -100 -118 -121 0
-460 -100 -118 -122 0
-460 -101 -118 -121 0
-460 -101 -118 -122 0
-460 -102 -118 -122 0
-460 128 0
-460 -100 131 0
-460 -101 132 0
-460 -102 133 0
-460 -145 0
-461 93 0
-461 -103 0
-461 -88 -100 -90 0
-461 -88 -101 -91 0
-461 -88 -102 -92 0
-461 -94 0
-461 -95 0
-461 -96 0
-461 -97 0
-461 -98 0
-461 -100 -109 -111 0
-461 -100 -109 -112 0
-461 -100 -109 -113 0
-461 -101 -109 -112 0
-461 -101 -109 -113 0
-461 -102 -109 -113 0
-461 -100 -118 -120 0
-461 -100 -118 -121 0
-461 -100 -118 -122 0
-461 -101 -118 -121 0
-461 -101 -118 -122 0
-461 -102 -118 -122 0
-461 129 0
-461 -100 131 0
-461 -101 132 0
-461 -102 133 0
-461 -145 0
-462 93 0
-462 -113 0
-462 -83 -110 -90 0
-462 -83 -111 -91 0
-462 -83 -112 -92 0
-462 -106 0
-462 -107 0
-462 -108 0
-462 -109 0
-462 -110 -94 -101 0
-462 -110 -94 -102 0
-462 -110 -94 -103 0
-462 -111 -94 -102 0
-462 -111 -94 -103 0
-462 -112 -94 -103 0
-462 -110 -115 -120 0
-462 -110 -115 -121 0
-462 -110 -115 -122 0
-462 -111 -115 -121 0
-462 -111 -115 -122 0
-462 -112 -115 -122 0
-462 124 0
-462 -110 131 0
-462 -111 132 0
-462 -112 133 0
-462 -155 0
-463 93 0
-463 -113 0
-463 -84 -110 -90 0
-463 -84 -111 -91 0
-463 -84 -112 -92 0
-463 -107 0
-463 -108 0
-463 -109 0
-463 -110 -95 -101 0
-463 -110 -95 -102 0
-463 -110 -95 -103 0
-463 -111 -95 -102 0
-463 -111 -95 -103 0
-463 -112 -95 -103 0
-463 -110 -115 -120 0
-463 -110 -115 -121 0
-463 -110 -115 -122 0
-463 -111 -115 -121 0
-463 -111 -115 -122 0
-463 -112 -115 -122 0
-463 -110 -116 -120 0
-463 -110 -116 -121 0
-463 -110 -116 -122 0
-463 -111 -116 -121 0
-463 -111 -116 -122 0
-463 -112 -116 -122 0
-463 125 0
-463 -110 131 0
-463 -111 132 0
-463 -112 133 0
-463 -155 0
-464 93 0
-464 -113 0
-464 -85 -110 -90 0
-464 -85 -111 -91 0
-464 -85 -112 -92 0
-464 -105 0
-464 -108 0
-464 -109 0
-464 -110 -96 -101 0
-464 -110 -96 -102 0
-464 -110 -96 -103 0
-464 -111 -96 -102 0
-464 -111 -96 -103 0
-464 -112 -96 -103 0
-464 -110 -115 -120 0
-464 -110 -115 -121 0
-464 -110 -115 -122 0
-464 -111 -115 -121 0
-464 -111 -115 -122 0
-464 -112 -115 -122 0
-464 -110 -116 -120 0
-464 -110 -116 -121 0
-464 -110 -116 -122 0
-464 -111 -116 -121 0
-464 -111 -116 -122 0
-464 -112 -116 -122 0
-464 -110 -117 -120 0
-464 -110 -117 -121 0
-464 -110 -117 -122 0
-464 -111 -117 -121 0
-464 -111 -117 -122 0
-464 -112 -117 -122 0
-464 126 0
-464 -110 131 0
-464 -111 132 0
-464 -112 133 0
-464 -155 0
-465 93 0
-465 -113 0
-465 -86 -110 -90 0
-465 -86 -111 -91 0
-465 -86 -112 -92 0
-465 -105 0
-465 -106 0
-465 -109 0
-465 -110 -97 -101 0
-465 -110 -97 -102 0
-465 -110 -97 -103 0
-465 -111 -97 -102 0
-465 -111 -97 -103 0
-465 -112 -97 -103 0
-465 -110 -116 -120 0
-465 -110 -116 -121 0
-465 -110 -116 -122 0
-465 -111 -116 -121 0
-465 -111 -116 -122 0
-465 -112 -116 -122 0
-465 -110 -117 -120 0
-465 -110 -117 -121 0
-465 -110 -117 -122 0
-465 -111 -117 -121 0
-465 -111 -117 -122 0
-465 -112 -117 -122 0
-465 -110 -118 -120 0
-465 -110 -118 -121 0
-465 -110 -118 -122 0
-465 -111 -118 -121 0
-465 -111 -118 -122 0
-465 -112 -118 -122 0
-465 127 0
-465 -110 131 0
-465 -111 132 0
-465 -112 133 0
-465 -155 0
-466 93 0
-466 -113 0
-466 -87 -110 -90 0
-466 -87 -111 -91 0
-466 -87 -112 -92 0
-466 -105 0
-466 -106 0
-466 -107 0
-466 -110 -98 -101 0
-466 -110 -98 -102 0
-466 -110 -98 -103 0
-466 -111 -98 -102 0
-466 -111 -98 -103 0
-466 -112 -98 -103 0
-466 -110 -117 -120 0
-466 -110 -117 -121 0
-466 -110 -117 -122 0
-466 -111 -117 -121 0
-466 -111 -117 -122 0
-466 -112 -117 -122 0
-466 -110 -118 -120 0
-466 -110 -118 -121 0
-466 -110 -118 -122 0
-466 -111 -118 -121 0
-466 -111 -118 -122 0
-466 -112 -118 -122 0
-466 128 0
-466 -110 131 0
-466 -111 132 0
-466 -112 133 0
-466 -155 0
-467 93 0
-467 -113 0
-467 -88 -110 -90 0
-467 -88 -111 -91 0
-467 -88 -112 -92 0
-467 -105 0
-467 -106 0
-467 -107 0
-467 -108 0
-467 -110 -99 -101 0
-467 -110 -99 -102 0
-467 -110 -99 -103 0
-467 -111 -99 -102 0
-467 -111 -99 -103 0
-467 -112 -99 -103 0
-467 -110 -118 -120 0
-467 -110 -118 -121 0
-467 -110 -118 -122 0
-467 -111 -118 -121 0
-467 -111 -118 -122 0
-467 -112 -118 -122 0
-467 129 0
-467 -110 131 0
-467 -111 132 0
-467 -112 133 0
-467 -155 0
-468 93 0
-468 -122 0
-468 -83 -119 -90 0
-468 -83 -120 -91 0
-468 -83 -121 -92 0
-468 -116 0
-468 -117 0
-468 -118 0
-468 -119 -94 -101 0
-468 -119 -94 -102 0
-468 -119 -94 -103 0
-468 -120 -94 -102 0
-468 -120 -94 -103 0
-468 -121 -94 -103 0
-468 -119 -105 -111 0
-468 -119 -105 -112 0
-468 -119 -105 -113 0
-468 -120 -105 -112 0
-468 -120 -105 -113 0
-468 -121 -105 -113 0
-468 124 0
-468 -119 131 0
-468 -120 132 0
-468 -121 133 0
-468 -164 0
-469 93 0
-469 -122 0
-469 -84 -119 -90 0
-469 -84 -120 -91 0
-469 -84 -121 -92 0
-469 -117 0
-469 -118 0
-469 -119 -95 -101 0
-469 -119 -95 -102 0
-469 -119 -95 -103 0
-469 -120 -95 -102 0
-469 -120 -95 -103 0
-469 -121 -95 -103 0
-469 -119 -105 -111 0
-469 -119 -105 -112 0
-469 -119 -105 -113 0
-469 -120 -105 -112 0
-469 -120 -105 -113 0
-469 -121 -105 -113 0
-469 -119 -106 -111 0
-469 -119 -106 -112 0
-469 -119 -106 -113 0
-469 -120 -106 -112 0
-469 -120 -106 -113 0
-469 -121 -106 -113 0
-469 125 0
-469 -119 131 0
-469 -120 132 0
-469 -121 133 0
-469 -164 0
-470 93 0
-470 -122 0
-470 -85 -119 -90 0
-470 -85 -120 -91 0
-470 -85 -121 -92 0
-470 -118 0
-470 -119 -96 -101 0
-470 -119 -96 -102 0
-470 -119 -96 -103 0
-470 -120 -96 -102 0
-470 -120 -96 -103 0
-470 -121 -96 -103 0
-470 -119 -106 -111 0
-470 -119 -106 -112 0
-470 -119 -106 -113 0
-470 -120 -106 -112 0
-470 -120 -106 -113 0
-470 -121 -106 -113 0
-470 -119 -107 -111 0
-470 -119 -107 -112 0
-470 -119 -107 -113 0
-470 -120 -107 -112 0
-470 -120 -107 -113 0
-470 -121 -107 -113 0
-470 126 0
-470 -119 131 0
-470 -120 132 0
-470 -121 133 0
-470 -164 0
-471 93 0
-471 -122 0
-471 -86 -119 -90 0
-471 -86 -120 -91 0
-471 -86 -121 -92 0
-471 -115 0
-471 -119 -97 -101 0
-471 -119 -97 -102 0
-471 -119 -97 -103 0
-471 -120 -97 -102 0
-471 -120 -97 -103 0
-471 -121 -97 -103 0
-471 -119 -107 -111 0
-471 -119 -107 -112 0
-471 -119 -107 -113 0
-471 -120 -107 -112 0
-471 -120 -107 -113 0
-471 -121 -107 -113 0
-471 -119 -108 -111 0
-471 -119 -108 -112 0
-471 -119 -108 -113 0
-471 -120 -108 -112 0
-471 -120 -108 -113 0
-471 -121 -108 -113 0
-471 127 0
-471 -119 131 0
-471 -120 132 0
-471 -121 133 0
-471 -164 0
-472 93 0
-472 -122 0
-472 -87 -119 -90 0
-472 -87 -120 -91 0
-472 -87 -121 -92 0
-472 -115 0
-472 -116 0
-472 -119 -98 -101 0
-472 -119 -98 -102 0
-472 -119 -98 -103 0
-472 -120 -98 -102 0
-472 -120 -98 -103 0
-472 -121 -98 -103 0
-472 -119 -108 -111 0
-472 -119 -108 -112 0
-472 -119 -108 -113 0
-472 -120 -108 -112 0
-472 -120 -108 -113 0
-472 -121 -108 -113 0
-472 -119 -109 -111 0
-472 -119 -109 -112 0
-472 -119 -109 -113 0
-472 -120 -109 -112 0
-472 -120 -109 -113 0
-472 -121 -109 -113 0
-472 128 0
-472 -119 131 0
-472 -120 132 0
-472 -121 133 0
-472 -164 0
-473 93 0
-473 -122 0
-473 -88 -119 -90 0
-473 -88 -120 -91 0
-473 -88 -121 -92 0
-473 -115 0
-473 -116 0
-473 -117 0
-473 -119 -99 -101 0
-473 -119 -99 -102 0
-473 -119 -99 -103 0
-473 -120 -99 -102 0
-473 -120 -99 -103 0
-473 -121 -99 -103 0
-473 -119 -109 -111 0
-473 -119 -109 -112 0
-473 -119 -109 -113 0
-473 -120 -109 -112 0
-473 -120 -109 -113 0
-473 -121 -109 -113 0
-473 129 0
-473 -119 131 0
-473 -120 132 0
-473 -121 133 0
-473 -164 0
-474 93 0
-474 -83 -89 0
-474 -94 -100 0
-474 -94 -101 0
-474 -94 -102 0
-474 -94 -103 0
-474 -105 -110 0
-474 -105 -111 0
-474 -105 -112 0
-474 -105 -113 0
-474 -115 -119 0
-474 -115 -120 0
-474 -115 -121 0
-474 -115 -122 0
-474 124 0
-474 130 0
-475 93 0
-475 -84 -89 0
-475 -95 -100 0
-475 -95 -101 0
-475 -95 -102 0
-475 -95 -103 0
-475 -105 -110 0
-475 -105 -111 0
-475 -105 -112 0
-475 -105 -113 0
-475 -106 -110 0
-475 -106 -111 0
-475 -106 -112 0
-475 -106 -113 0
-475 -115 -119 0
-475 -115 -120 0
-475 -115 -121 0
-475 -115 -122 0
-475 -116 -119 0
-475 -116 -120 0
-475 -116 -121 0
-475 -116 -122 0
-475 125 0
-475 130 0
-476 93 0
-476 -85 -89 0
-476 -96 -100 0
-476 -96 -101 0
-476 -96 -102 0
-476 -96 -103 0
-476 -106 -110 0
-476 -106 -111 0
-476 -106 -112 0
-476 -106 -113 0
-476 -107 -110 0
-476 -107 -111 0
-476 -107 -112 0
-476 -107 -113 0
-476 -115 -119 0
-476 -115 -120 0
-476 -115 -121 0
-476 -115 -122 0
-476 -116 -119 0
-476 -116 -120 0
-476 -116 -121 0
-476 -116 -122 0
-476 -117 -119 0
-476 -117 -120 0
-476 -117 -121 0
-476 -117 -122 0
-476 126 0
-476 130 0
-477 93 0
-477 -86 -89 0
-477 -97 -100 0
-477 -97 -101 0
-477 -97 -102 0
-477 -97 -103 0
-477 -107 -110 0
-477 -107 -111 0
-477 -107 -112 0
-477 -107 -113 0
-477 -108 -110 0
-477 -108 -111 0
-477 -108 -112 0
-477 -108 -113 0
-477 -116 -119 0
-477 -116 -120 0
-477 -116 -121 0
-477 -116 -122 0
-477 -117 -119 0
-477 -117 -120 0
-477 -117 -121 0
-477 -117 -122 0
-477 -118 -119 0
-477 -118 -120 0
-477 -118 -121 0
-477 -118 -122 0
-477 127 0
-477 130 0
-478 93 0
-478 -87 -89 0
-478 -98 -100 0
-478 -98 -101 0
-478 -98 -102 0
-478 -98 -103 0
-478 -108 -110 0
-478 -108 -111 0
-478 -108 -112 0
-478 -108 -113 0
-478 -109 -110 0
-478 -109 -111 0
-478 -109 -112 0
-478 -109 -113 0
-478 -117 -119 0
-478 -117 -120 0
-478 -117 -121 0
-478 -117 -122 0
-478 -118 -119 0
-478 -118 -120 0
-478 -118 -121 0
-478 -118 -122 0
-478 128 0
-478 130 0
-479 93 0
-479 -88 -89 0
-479 -99 -100 0
-479 -99 -101 0
-479 -99 -102 0
-479 -99 -103 0
-479 -109 -110 0
-479 -109 -111 0
-479 -109 -112 0
-479 -109 -113 0
-479 -118 -119 0
-479 -118 -120 0
-479 -118 -121 0
-479 -118 -122 0
-479 129 0
-479 130 0
-480 104 0
-480 -92 0
-480 -94 -89 -101 0
-480 -94 -90 -102 0
-480 -94 -91 -103 0
-480 -84 0
-480 -85 0
-480 -86 0
-480 -87 0
-480 -88 0
-480 -89 -105 -111 0
-480 -89 -105 -112 0
-480 -89 -105 -113 0
-480 -90 -105 -112 0
-480 -90 -105 -113 0
-480 -91 -105 -113 0
-480 -89 -115 -120 0
-480 -89 -115 -121 0
-480 -89 -115 -122 0
-480 -90 -115 -121 0
-480 -90 -115 -122 0
-480 -91 -115 -122 0
-480 135 0
-480 -89 142 0
-480 -90 143 0
-480 -91 144 0
-480 -134 0
-481 104 0
-481 -92 0
-481 -95 -89 -101 0
-481 -95 -90 -102 0
-481 -95 -91 -103 0
-481 -83 0
-481 -85 0
-481 -86 0
-481 -87 0
-481 -88 0
-481 -89 -105 -111 0
-481 -89 -105 -112 0
-481 -89 -105 -113 0
-481 -90 -105 -112 0
-481 -90 -105 -113 0
-481 -91 -105 -113 0
-481 -89 -106 -111 0
-481 -89 -106 -112 0
-481 -89 -106 -113 0
-481 -90 -106 -112 0
-481 -90 -106 -113 0
-481 -91 -106 -113 0
-481 -89 -115 -120 0
-481 -89 -115 -121 0
-481 -89 -115 -122 0
-481 -90 -115 -121 0
-481 -90 -115 -122 0
-481 -91 -115 -122 0
-481 -89 -116 -120 0
-481 -89 -116 -121 0
-481 -89 -116 -122 0
-481 -90 -116 -121 0
-481 -90 -116 -122 0
-481 -91 -116 -122 0
-481 136 0
-481 -89 142 0
-481 -90 143 0
-481 -91 144 0
-481 -134 0
-482 104 0
-482 -92 0
-482 -96 -89 -101 0
-482 -96 -90 -102 0
-482 -96 -91 -103 0
-482 -83 0
-482 -84 0
-482 -86 0
-482 -87 0
-482 -88 0
-482 -89 -106 -111 0
-482 -89 -106 -112 0
-482 -89 -106 -113 0
-482 -90 -106 -112 0
-482 -90 -106 -113 0
-482 -91 -106 -113 0
-482 -89 -107 -111 0
-482 -89 -107 -112 0
-482 -89 -107 -113 0
-482 -90 -107 -112 0
-482 -90 -107 -113 0
-482 -91 -107 -113 0
-482 -89 -115 -120 0
-482 -89 -115 -121 0
-482 -89 -115 -122 0
-482 -90 -115 -121 0
-482 -90 -115 -122 0
-482 -91 -115 -122 0
-482 -89 -116 -120 0
-482 -89 -116 -121 0
-482 -89 -116 -122 0
-482 -90 -116 -121 0
-482 -90 -116 -122 0
-482 -91 -116 -122 0
-482 -89 -117 -120 0
-482 -89 -117 -121 0
-482 -89 -117 -122 0
-482 -90 -117 -121 0
-482 -90 -117 -122 0
-482 -91 -117 -122 0
-482 137 0
-482 -89 142 0
-482 -90 143 0
-482 -91 144 0
-482 -134 0
-483 104 0
-483 -92 0
-483 -97 -89 -101 0
-483 -97 -90 -102 0
-483 -97 -91 -103 0
-483 -83 0
-483 -84 0
-483 -85 0
-483 -87 0
-483 -88 0
-483 -89 -107 -111 0
-483 -89 -107 -112 0
-483 -89 -107 -113 0
-483 -90 -107 -112 0
-483 -90 -107 -113 0
-483 -91 -107 -113 0
-483 -89 -108 -111 0
-483 -89 -108 -112 0
-483 -89 -108 -113 0
-483 -90 -108 -112 0
-483 -90 -108 -113 0
-483 -91 -108 -113 0
-483 -89 -116 -120 0
-483 -89 -116 -121 0
-483 -89 -116 -122 0
-483 -90 -116 -121 0
-483 -90 -116 -122 0
-483 -91 -116 -122 0
-483 -89 -117 -120 0
-483 -89 -117 -121 0
-483 -89 -117 -122 0
-483 -90 -117 -121 0
-483 -90 -117 -122 0
-483 -91 -117 -122 0
-483 -89 -118 -120 0
-483 -89 -118 -121 0
-483 -89 -118 -122 0
-483 -90 -118 -121 0
-483 -90 -118 -122 0
-483 -91 -118 -122 0
-483 138 0
-483 -89 142 0
-483 -90 143 0
-483 -91 144 0
-483 -134 0
-484 104 0
-484 -92 0
-484 -98 -89 -101 0
-484 -98 -90 -102 0
-484 -98 -91 -103 0
-484 -83 0
-484 -84 0
-484 -85 0
-484 -86 0
-484 -88 0
-484 -89 -108 -111 0
-484 -89 -108 -112 0
-484 -89 -108 -113 0
-484 -90 -108 -112 0
-484 -90 -108 -113 0
-484 -91 -108 -113 0
-484 -89 -109 -111 0
-484 -89 -109 -112 0
-484 -89 -109 -113 0
-484 -90 -109 -112 0
-484 -90 -109 -113 0
-484 -91 -109 -113 0
-484 -89 -117 -120 0
-484 -89 -117 -121 0
-484 -89 -117 -122 0
-484 -90 -117 -121 0
-484 -90 -117 -122 0
-484 -91 -117 -122 0
-484 -89 -118 -120 0
-484 -89 -118 -121 0
-484 -89 -118 -122 0
-484 -90 -118 -121 0
-484 -90 -118 -122 0
-484 -91 -118 -122 0
-484 139 0
-484 -89 142 0
-484 -90 143 0
-484 -91 144 0
-484 -134 0
-485 104 0
-485 -92 0
-485 -99 -89 -101 0
-485 -99 -90 -102 0
-485 -99 -91 -103 0
-485 -83 0
-485 -84 0
-485 -85 0
-485 -86 0
-485 -87 0
-485 -89 -109 -111 0
-485 -89 -109 -112 0
-485 -89 -109 -113 0
-485 -90 -109 -112 0
-485 -90 -109 -113 0
-485 -91 -109 -113 0
-485 -89 -118 -120 0
-485 -89 -118 -121 0
-485 -89 -118 -122 0
-485 -90 -118 -121 0
-485 -90 -118 -122 0
-485 -91 -118 -122 0
-485 140 0
-485 -89 142 0
-485 -90 143 0
-485 -91 144 0
-485 -134 0
-486 104 0
-486 -113 0
-486 -94 -110 -101 0
-486 -94 -111 -102 0
-486 -94 -112 -103 0
-486 -106 0
-486 -107 0
-486 -108 0
-486 -109 0
-486 -110 -83 -90 0
-486 -110 -83 -91 0
-486 -110 -83 -92 0
-486 -111 -83 -91 0
-486 -111 -83 -92 0
-486 -112 -83 -92 0
-486 -110 -115 -120 0
-486 -110 -115 -121 0
-486 -110 -115 -122 0
-486 -111 -115 -121 0
-486 -111 -115 -122 0
-486 -112 -115 -122 0
-486 135 0
-486 -110 142 0
-486 -111 143 0
-486 -112 144 0
-486 -155 0
-487 104 0
-487 -113 0
-487 -95 -110 -101 0
-487 -95 -111 -102 0
-487 -95 -112 -103 0
-487 -107 0
-487 -108 0
-487 -109 0
-487 -110 -84 -90 0
-487 -110 -84 -91 0
-487 -110 -84 -92 0
-487 -111 -84 -91 0
-487 -111 -84 -92 0
-487 -112 -84 -92 0
-487 -110 -115 -120 0
-487 -110 -115 -121 0
-487 -110 -115 -122 0
-487 -111 -115 -121 0
-487 -111 -115 -122 0
-487 -112 -115 -122 0
-487 -110 -116 -120 0
-487 -110 -116 -121 0
-487 -110 -116 -122 0
-487 -111 -116 -121 0
-487 -111 -116 -122 0
-487 -112 -116 -122 0
-487 136 0
-487 -110 142 0
-487 -111 143 0
-487 -112 144 0
-487 -155 0
-488 104 0
-488 -113 0
-488 -96 -110 -101 0
-488 -96 -111 -102 0
-488 -96 -112 -103 0
-488 -105 0
-488 -108 0
-488 -109 0
-488 -110 -85 -90 0
-488 -110 -85 -91 0
-488 -110 -85 -92 0
-488 -111 -85 -91 0
-488 -111 -85 -92 0
-488 -112 -85 -92 0
-488 -110 -115 -120 0
-488 -110 -115 -121 0
-488 -110 -115 -122 0
-488 -111 -115 -121 0
-488 -111 -115 -122 0
-488 -112 -115 -122 0
-488 -110 -116 -120 0
-488 -110 -116 -121 0
-488 -110 -116 -122 0
-488 -111 -116 -121 0
-488 -111 -116 -122 0
-488 -112 -116 -122 0
-488 -110 -117 -120 0
-488 -110 -117 -121 0
-488 -110 -117 -122 0
-488 -111 -117 -121 0
-488 -111 -117 -122 0
-488 -112 -117 -122 0
-488 137 0
-488 -110 142 0
-488 -111 143 0
-488 -112 144 0
-488 -155 0
-489 104 0
-489 -113 0
-489 -97 -110 -101 0
-489 -97 -111 -102 0
-489 -97 -112 -103 0
-489 -105 0
-489 -106 0
-489 -109 0
-489 -110 -86 -90 0
-489 -110 -86 -91 0
-489 -110 -86 -92 0
-489 -111 -86 -91 0
-489 -111 -86 -92 0
-489 -112 -86 -92 0
-489 -110 -116 -120 0
-489 -110 -116 -121 0
-489 -110 -116 -122 0
-489 -111 -116 -121 0
-489 -111 -116 -122 0
-489 -112 -116 -122 0
-489 -110 -117 -120 0
-489 -110 -117 -121 0
-489 -110 -117 -122 0
-489 -111 -117 -121 0
-489 -111 -117 -122 0
-489 -112 -117 -122 0
-489 -110 -118 -120 0
-489 -110 -118 -121 0
-489 -110 -118 -122 0
-489 -111 -118 -121 0
-489 -111 -118 -122 0
-489 -112 -118 -122 0
-489 138 0
-489 -110 142 0
-489 -111 143 0
-489 -112 144 0
-489 -155 0
-490 104 0
-490 -113 0
-490 -98 -110 -101 0
-490 -98 -111 -102 0
-490 -98 -112 -103 0
-490 -105 0
-490 -106 0
-490 -107 0
-490 -110 -87 -90 0
-490 -110 -87 -91 0
-490 -110 -87 -92 0
-490 -111 -87 -91 0
-490 -111 -87 -92 0
-490 -112 -87 -92 0
-490 -110 -117 -120 0
-490 -110 -117 -121 0
-490 -110 -117 -122 0
-490 -111 -117 -121 0
-490 -111 -117 -122 0
-490 -112 -117 -122 0
-490 -110 -118 -120 0
-490 -110 -118 -121 0
-490 -110 -118 -122 0
-490 -111 -118 -121 0
-490 -111 -118 -122 0
-490 -112 -118 -122 0
-490 139 0
-490 -110 142 0
-490 -111 143 0
-490 -112 144 0
-490 -155 0
-491 104 0
-491 -113 0
-491 -99 -110 -101 0
-491 -99 -111 -102 0
-491 -99 -112 -103 0
-491 -105 0
-491 -106 0
-491 -107 0
-491 -108 0
-491 -110 -88 -90 0
-491 -110 -88 -91 0
-491 -110 -88 -92 0
-491 -111 -88 -91 0
-491 -111 -88 -92 0
-491 -112 -88 -92 0
-491 -110 -118 -120 0
-491 -110 -118 -121 0
-491 -110 -118 -122 0
-491 -111 -118 -121 0
-491 -111 -118 -122 0
-491 -112 -118 -122 0
-491 140 0
-491 -110 142 0
-491 -111 143 0
-491 -112 144 0
-491 -155 0
-492 104 0
-492 -122 0
-492 -94 -119 -101 0
-492 -94 -120 -102 0
-492 -94 -121 -103 0
-492 -116 0
-492 -117 0
-492 -118 0
-492 -119 -83 -90 0
-492 -119 -83 -91 0
-492 -119 -83 -92 0
-492 -120 -83 -91 0
-492 -120 -83 -92 0
-492 -121 -83 -92 0
-492 -119 -105 -111 0
-492 -119 -105 -112 0
-492 -119 -105 -113 0
-492 -120 -105 -112 0
-492 -120 -105 -113 0
-492 -121 -105 -113 0
-492 135 0
-492 -119 142 0
-492 -120 143 0
-492 -121 144 0
-492 -164 0
-493 104 0
-493 -122 0
-493 -95 -119 -101 0
-493 -95 -120 -102 0
-493 -95 -121 -103 0
-493 -117 0
-493 -118 0
-493 -119 -84 -90 0
-493 -119 -84 -91 0
-493 -119 -84 -92 0
-493 -120 -84 -91 0
-493 -120 -84 -92 0
-493 -121 -84 -92 0
-493 -119 -105 -111 0
-493 -119 -105 -112 0
-493 -119 -105 -113 0
-493 -120 -105 -112 0
-493 -120 -105 -113 0
-493 -121 -105 -113 0
-493 -119 -106 -111 0
-493 -119 -106 -112 0
-493 -119 -106 -113 0
-493 -120 -106 -112 0
-493 -120 -106 -113 0
-493 -121 -106 -113 0
-493 136 0
-493 -119 142 0
-493 -120 143 0
-493 -121 144 0
-493 -164 0
-494 104 0
-494 -122 0
-494 -96 -119 -101 0
-494 -96 -120 -102 0
-494 -96 -121 -103 0
-494 -118 0
-494 -119 -85 -90 0
-494 -119 -85 -91 0
-494 -119 -85 -92 0
-494 -120 -85 -91 0
-494 -120 -85 -92 0
-494 -121 -85 -92 0
-494 -119 -106 -111 0
-494 -119 -106 -112 0
-494 -119 -106 -113 0
-494 -120 -106 -112 0
-494 -120 -106 -113 0
-494 -121 -106 -113 0
-494 -119 -107 -111 0
-494 -119 -107 -112 0
-494 -119 -107 -113 0
-494 -120 -107 -112 0
-494 -120 -107 -113 0
-494 -121 -107 -113 0
-494 137 0
-494 -119 142 0
-494 -120 143 0
-494 -121 144 0
-494 -164 0
-495 104 0
-495 -122 0
-495 -97 -119 -101 0
-495 -97 -120 -102 0
-495 -97 -121 -103 0
-495 -115 0
-495 -119 -86 -90 0
-495 -119 -86 -91 0
-495 -119 -86 -92 0
-495 -120 -86 -91 0
-495 -120 -86 -92 0
-495 -121 -86 -92 0
-495 -119 -107 -111 0
-495 -119 -107 -112 0
-495 -119 -107 -113 0
-495 -120 -107 -112 0
-495 -120 -107 -113 0
-495 -121 -107 -113 0
-495 -119 -108 -111 0
-495 -119 -108 -112 0
-495 -119 -108 -113 0
-495 -120 -108 -112 0
-495 -120 -108 -113 0
-495 -121 -108 -113 0
-495 138 0
-495 -119 142 0
-495 -120 143 0
-495 -121 144 0
-495 -164 0
-496 104 0
-496 -122 0
-496 -98 -119 -101 0
-496 -98 -120 -102 0
-496 -98 -121 -103 0
-496 -115 0
-496 -116 0
-496 -119 -87 -90 0
-496 -119 -87 -91 0
-496 -119 -87 -92 0
-496 -120 -87 -91 0
-496 -120 -87 -92 0
-496 -121 -87 -92 0
-496 -119 -108 -111 0
-496 -119 -108 -112 0
-496 -119 -108 -113 0
-496 -120 -108 -112 0
-496 -120 -108 -113 0
-496 -121 -108 -113 0
-496 -119 -109 -111 0
-496 -119 -109 -112 0
-496 -119 -109 -113 0
-496 -120 -109 -112 0
-496 -120 -109 -113 0
-496 -121 -109 -113 0
-496 139 0
-496 -119 142 0
-496 -120 143 0
-496 -121 144 0
-496 -164 0
-497 104 0
-497 -122 0
-497 -99 -119 -101 0
-497 -99 -120 -102 0
-497 -99 -121 -103 0
-497 -115 0
-497 -116 0
-497 -117 0
-497 -119 -88 -90 0
-497 -119 -88 -91 0
-497 -119 -88 -92 0
-497 -120 -88 -91 0
-497 -120 -88 -92 0
-497 -121 -88 -92 0
-497 -119 -109 -111 0
-497 -119 -109 -112 0
-497 -119 -109 -113 0
-497 -120 -109 -112 0
-497 -120 -109 -113 0
-497 -121 -109 -113 0
-497 140 0
-497 -119 142 0
-497 -120 143 0
-497 -121 144 0
-497 -164 0
-498 104 0
-498 -94 -100 0
-498 -83 -89 0
-498 -83 -90 0
-498 -83 -91 0
-498 -83 -92 0
-498 -105 -110 0
-498 -105 -111 0
-498 -105 -112 0
-498 -105 -113 0
-498 -115 -119 0
-498 -115 -120 0
-498 -115 -121 0
-498 -115 -122 0
-498 135 0
-498 141 0
-499 104 0
-499 -95 -100 0
-499 -84 -89 0
-499 -84 -90 0
-499 -84 -91 0
-499 -84 -92 0
-499 -105 -110 0
-499 -105 -111 0
-499 -105 -112 0
-499 -105 -113 0
-499 -106 -110 0
-499 -106 -111 0
-499 -106 -112 0
-499 -106 -113 0
-499 -115 -119 0
-499 -115 -120 0
-499 -115 -121 0
-499 -115 -122 0
-499 -116 -119 0
-499 -116 -120 0
-499 -116 -121 0
-499 -116 -122 0
-499 136 0
-499 141 0
-500 104 0
-500 -96 -100 0
-500 -85 -89 0
-500 -85 -90 0
-500 -85 -91 0
-500 -85 -92 0
-500 -106 -110 0
-500 -106 -111 0
-500 -106 -112 0
-500 -106 -113 0
-500 -107 -110 0
-500 -107 -111 0
-500 -107 -112 0
-500 -107 -113 0
-500 -115 -119 0
-500 -115 -120 0
-500 -115 -121 0
-500 -115 -122 0
-500 -116 -119 0
-500 -116 -120 0
-500 -116 -121 0
-500 -116 -122 0
-500 -117 -119 0
-500 -117 -120 0
-500 -117 -121 0
-500 -117 -122 0
-500 137 0
-500 141 0
-501 104 0
-501 -97 -100 0
-501 -86 -89 0
-501 -86 -90 0
-501 -86 -91 0
-501 -86 -92 0
-501 -107 -110 0
-501 -107 -111 0
-501 -107 -112 0
-501 -107 -113 0
-501 -108 -110 0
-501 -108 -111 0
-501 -108 -112 0
-501 -108 -113 0
-501 -116 -119 0
-501 -116 -120 0
-501 -116 -121 0
-501 -116 -122 0
-501 -117 -119 0
-501 -117 -120 0
-501 -117 -121 0
-501 -117 -122 0
-501 -118 -119 0
-501 -118 -120 0
-501 -118 -121 0
-501 -118 -122 0
-501 138 0
-501 141 0
-502 104 0
-502 -98 -100 0
-502 -87 -89 0
-502 -87 -90 0
-502 -87 -91 0
-502 -87 -92 0
-502 -108 -110 0
-502 -108 -111 0
-502 -108 -112 0
-502 -108 -113 0
-502 -109 -110 0
-502 -109 -111 0
-502 -109 -112 0
-502 -109 -113 0
-502 -117 -119 0
-502 -117 -120 0
-502 -117 -121 0
-502 -117 -122 0
-502 -118 -119 0
-502 -118 -120 0
-502 -118 -121 0
-502 -118 -122 0
-502 139 0
-502 141 0
-503 104 0
-503 -99 -100 0
-503 -88 -89 0
-503 -88 -90 0
-503 -88 -91 0
-503 -88 -92 0
-503 -109 -110 0
-503 -109 -111 0
-503 -109 -112 0
-503 -109 -113 0
-503 -118 -119 0
-503 -118 -120 0
-503 -118 -121 0
-503 -118 -122 0
-503 140 0
-503 141 0
-504 114 0
-504 -92 0
-504 -105 -89 -111 0
-504 -105 -90 -112 0
-504 -105 -91 -113 0
-504 -85 0
-504 -86 0
-504 -87 0
-504 -88 0
-504 -89 -94 -101 0
-504 -89 -94 -102 0
-504 -89 -94 -103 0
-504 -90 -94 -102 0
-504 -90 -94 -103 0
-504 -91 -94 -103 0
-504 -89 -95 -101 0
-504 -89 -95 -102 0
-504 -89 -95 -103 0
-504 -90 -95 -102 0
-504 -90 -95 -103 0
-504 -91 -95 -103 0
-504 -89 -115 -120 0
-504 -89 -115 -121 0
-504 -89 -115 -122 0
-504 -90 -115 -121 0
-504 -90 -115 -122 0
-504 -91 -115 -122 0
-504 -89 -116 -120 0
-504 -89 -116 -121 0
-504 -89 -116 -122 0
-504 -90 -116 -121 0
-504 -90 -116 -122 0
-504 -91 -116 -122 0
-504 146 0
-504 -89 152 0
-504 -90 153 0
-504 -91 154 0
-504 -134 0
-505 114 0
-505 -92 0
-505 -106 -89 -111 0
-505 -106 -90 -112 0
-505 -106 -91 -113 0
-505 -83 0
-505 -86 0
-505 -87 0
-505 -88 0
-505 -89 -95 -101 0
-505 -89 -95 -102 0
-505 -89 -95 -103 0
-505 -90 -95 -102 0
-505 -90 -95 -103 0
-505 -91 -95 -103 0
-505 -89 -96 -101 0
-505 -89 -96 -102 0
-505 -89 -96 -103 0
-505 -90 -96 -102 0
-505 -90 -96 -103 0
-505 -91 -96 -103 0
-505 -89 -115 -120 0
-505 -89 -115 -121 0
-505 -89 -115 -122 0
-505 -90 -115 -121 0
-505 -90 -115 -122 0
-505 -91 -115 -122 0
-505 -89 -116 -120 0
-505 -89 -116 -121 0
-505 -89 -116 -122 0
-505 -90 -116 -121 0
-505 -90 -116 -122 0
-505 -91 -116 -122 0
-505 -89 -117 -120 0
-505 -89 -117 -121 0
-505 -89 -117 -122 0
-505 -90 -117 -121 0
-505 -90 -117 -122 0
-505 -91 -117 -122 0
-505 147 0
-505 -89 152 0
-505 -90 153 0
-505 -91 154 0
-505 -134 0
-506 114 0
-506 -92 0
-506 -107 -89 -111 0
-506 -107 -90 -112 0
-506 -107 -91 -113 0
-506 -83 0
-506 -84 0
-506 -87 0
-506 -88 0
-506 -89 -96 -101 0
-506 -89 -96 -102 0
-506 -89 -96 -103 0
-506 -90 -96 -102 0
-506 -90 -96 -103 0
-506 -91 -96 -103 0
-506 -89 -97 -101 0
-506 -89 -97 -102 0
-506 -89 -97 -103 0
-506 -90 -97 -102 0
-506 -90 -97 -103 0
-506 -91 -97 -103 0
-506 -89 -115 -120 0
-506 -89 -115 -121 0
-506 -89 -115 -122 0
-506 -90 -115 -121 0
-506 -90 -115 -122 0
-506 -91 -115 -122 0
-506 -89 -116 -120 0
-506 -89 -116 -121 0
-506 -89 -116 -122 0
-506 -90 -116 -121 0
-506 -90 -116 -122 0
-506 -91 -116 -122 0
-506 -89 -117 -120 0
-506 -89 -117 -121 0
-506 -89 -117 -122 0
-506 -90 -117 -121 0
-506 -90 -117 -122 0
-506 -91 -117 -122 0
-506 -89 -118 -120 0
-506 -89 -118 -121 0
-506 -89 -118 -122 0
-506 -90 -118 -121 0
-506 -90 -118 -122 0
-506 -91 -118 -122 0
-506 148 0
-506 -89 152 0
-506 -90 153 0
-506 -91 154 0
-506 -134 0
-507 114 0
-507 -92 0
-507 -108 -89 -111 0
-507 -108 -90 -112 0
-507 -108 -91 -113 0
-507 -83 0
-507 -84 0
-507 -85 0
-507 -88 0
-507 -89 -97 -101 0
-507 -89 -97 -102 0
-507 -89 -97 -103 0
-507 -90 -97 -102 0
-507 -90 -97 -103 0
-507 -91 -97 -103 0
-507 -89 -98 -101 0
-507 -89 -98 -102 0
-507 -89 -98 -103 0
-507 -90 -98 -102 0
-507 -90 -98 -103 0
-507 -91 -98 -103 0
-507 -89 -116 -120 0
-507 -89 -116 -121 0
-507 -89 -116 -122 0
-507 -90 -116 -121 0
-507 -90 -116 -122 0
-507 -91 -116 -122 0
-507 -89 -117 -120 0
-507 -89 -117 -121 0
-507 -89 -117 -122 0
-507 -90 -117 -121 0
-507 -90 -117 -122 0
-507 -91 -117 -122 0
-507 -89 -118 -120 0
-507 -89 -118 -121 0
-507 -89 -118 -122 0
-507 -90 -118 -121 0
-507 -90 -118 -122 0
-507 -91 -118 -122 0
-507 149 0
-507 -89 152 0
-507 -90 153 0
-507 -91 154 0
-507 -134 0
-508 114 0
-508 -92 0
-508 -109 -89 -111 0
-508 -109 -90 -112 0
-508 -109 -91 -113 0
-508 -83 0
-508 -84 0
-508 -85 0
-508 -86 0
-508 -89 -98 -101 0
-508 -89 -98 -102 0
-508 -89 -98 -103 0
-508 -90 -98 -102 0
-508 -90 -98 -103 0
-508 -91 -98 -103 0
-508 -89 -99 -101 0
-508 -89 -99 -102 0
-508 -89 -99 -103 0
-508 -90 -99 -102 0
-508 -90 -99 -103 0
-508 -91 -99 -103 0
-508 -89 -117 -120 0
-508 -89 -117 -121 0
-508 -89 -117 -122 0
-508 -90 -117 -121 0
-508 -90 -117 -122 0
-508 -91 -117 -122 0
-508 -89 -118 -120 0
-508 -89 -118 -121 0
-508 -89 -118 -122 0
-508 -90 -118 -121 0
-508 -90 -118 -122 0
-508 -91 -118 -122 0
-508 150 0
-508 -89 152 0
-508 -90 153 0
-508 -91 154 0
-508 -134 0
-509 114 0
-509 -103 0
-509 -105 -100 -111 0
-509 -105 -101 -112 0
-509 -105 -102 -113 0
-509 -96 0
-509 -97 0
-509 -98 0
-509 -99 0
-509 -100 -83 -90 0
-509 -100 -83 -91 0
-509 -100 -83 -92 0
-509 -101 -83 -91 0
-509 -101 -83 -92 0
-509 -102 -83 -92 0
-509 -100 -84 -90 0
-509 -100 -84 -91 0
-509 -100 -84 -92 0
-509 -101 -84 -91 0
-509 -101 -84 -92 0
-509 -102 -84 -92 0
-509 -100 -115 -120 0
-509 -100 -115 -121 0
-509 -100 -115 -122 0
-509 -101 -115 -121 0
-509 -101 -115 -122 0
-509 -102 -115 -122 0
-509 -100 -116 -120 0
-509 -100 -116 -121 0
-509 -100 -116 -122 0
-509 -101 -116 -121 0
-509 -101 -116 -122 0
-509 -102 -116 -122 0
-509 146 0
-509 -100 152 0
-509 -101 153 0
-509 -102 154 0
-509 -145 0
-510 114 0
-510 -103 0
-510 -106 -100 -111 0
-510 -106 -101 -112 0
-510 -106 -102 -113 0
-510 -94 0
-510 -97 0
-510 -98 0
-510 -99 0
-510 -100 -84 -90 0
-510 -100 -84 -91 0
-510 -100 -84 -92 0
-510 -101 -84 -91 0
-510 -101 -84 -92 0
-510 -102 -84 -92 0
-510 -100 -85 -90 0
-510 -100 -85 -91 0
-510 -100 -85 -92 0
-510 -101 -85 -91 0
-510 -101 -85 -92 0
-510 -102 -85 -92 0
-510 -100 -115 -120 0
-510 -100 -115 -121 0
-510 -100 -115 -122 0
-510 -101 -115 -121 0
-510 -101 -115 -122 0
-510 -102 -115 -122 0
-510 -100 -116 -120 0
-510 -100 -116 -121 0
-510 -100 -116 -122 0
-510 -101 -116 -121 0
-510 -101 -116 -122 0
-510 -102 -116 -122 0
-510 -100 -117 -120 0
-510 -100 -117 -121 0
-510 -100 -117 -122 0
-510 -101 -117 -121 0
-510 -101 -117 -122 0
-510 -102 -117 -122 0
-510 147 0
-510 -100 152 0
-510 -101 153 0
-510 -102 154 0
-510 -145 0
-511 114 0
-511 -103 0
-511 -107 -100 -111 0
-511 -107 -101 -112 0
-511 -107 -102 -113 0
-511 -94 0
-511 -95 0
-511 -98 0
-511 -99 0
-511 -100 -85 -90 0
-511 -100 -85 -91 0
-511 -100 -85 -92 0
-511 -101 -85 -91 0
-511 -101 -85 -92 0
-511 -102 -85 -92 0
-511 -100 -86 -90 0
-511 -100 -86 -91 0
-511 -100 -86 -92 0
-511 -101 -86 -91 0
-511 -101 -86 -92 0
-511 -102 -86 -92 0
-511 -100 -115 -120 0
-511 -100 -115 -121 0
-511 -100 -115 -122 0
-511 -101 -115 -121 0
-511 -101 -115 -122 0
-511 -102 -115 -122 0
-511 -100 -116 -120 0
-511 -100 -116 -121 0
-511 -100 -116 -122 0
-511 -101 -116 -121 0
-511 -101 -116 -122 0
-511 -102 -116 -122 0
-511 -100 -117 -120 0
-511 -100 -117 -121 0
-511 -100 -117 -122 0
-511 -101 -117 -121 0
-511 -101 -117 -122 0
-511 -102 -117 -122 0
-511 -100 -118 -120 0
-511 -100 -118 -121 0
-511 -100 -118 -122 0
-511 -101 -118 -121 0
-511 -101 -118 -122 0
-511 -102 -118 -122 0
-511 148 0
-511 -100 152 0
-511 -101 153 0
-511 -102 154 0
-511 -145 0
-512 114 0
-512 -103 0
-512 -108 -100 -111 0
-512 -108 -101 -112 0
-512 -108 -102 -113 0
-512 -94 0
-512 -95 0
-512 -96 0
-512 -99 0
-512 -100 -86 -90 0
-512 -100 -86 -91 0
-512 -100 -86 -92 0
-512 -101 -86 -91 0
-512 -101 -86 -92 0
-512 -102 -86 -92 0
-512 -100 -87 -90 0
-512 -100 -87 -91 0
-512 -100 -87 -92 0
-512 -101 -87 -91 0
-512 -101 -87 -92 0
-512 -102 -87 -92 0
-512 -100 -116 -120 0
-512 -100 -116 -121 0
-512 -100 -116 -122 0
-512 -101 -116 -121 0
-512 -101 -116 -122 0
-512 -102 -116 -122 0
-512 -100 -117 -120 0
-512 -100 -117 -121 0
-512 -100 -117 -122 0
-512 -101 -117 -121 0
-512 -101 -117 -122 0
-512 -102 -117 -122 0
-512 -100 -118 -120 0
-512 -100 -118 -121 0
-512 -100 -118 -122 0
-512 -101 -118 -121 0
-512 -101 -118 -122 0
-512 -102 -118 -122 0
-512 149 0
-512 -100 152 0
-512 -101 153 0
-512 -102 154 0
-512 -145 0
-513 114 0
-513 -103 0
-513 -109 -100 -111 0
-513 -109 -101 -112 0
-513 -109 -102 -113 0
-513 -94 0
-513 -95 0
-513 -96 0
-513 -97 0
-513 -100 -87 -90 0
-513 -100 -87 -91 0
-513 -100 -87 -92 0
-513 -101 -87 -91 0
-513 -101 -87 -92 0
-513 -102 -87 -92 0
-513 -100 -88 -90 0
-513 -100 -88 -91 0
-513 -100 -88 -92 0
-513 -101 -88 -91 0
-513 -101 -88 -92 0
-513 -102 -88 -92 0
-513 -100 -117 -120 0
-513 -100 -117 -121 0
-513 -100 -117 -122 0
-513 -101 -117 -121 0
-513 -101 -117 -122 0
-513 -102 -117 -122 0
-513 -100 -118 -120 0
-513 -100 -118 -121 0
-513 -100 -118 -122 0
-513 -101 -118 -121 0
-513 -101 -118 -122 0
-513 -102 -118 -122 0
-513 150 0
-513 -100 152 0
-513 -101 153 0
-513 -102 154 0
-513 -145 0
-514 114 0
-514 -122 0
-514 -105 -119 -111 0
-514 -105 -120 -112 0
-514 -105 -121 -113 0
-514 -117 0
-514 -118 0
-514 -119 -83 -90 0
-514 -119 -83 -91 0
-514 -119 -83 -92 0
-514 -120 -83 -91 0
-514 -120 -83 -92 0
-514 -121 -83 -92 0
-514 -119 -84 -90 0
-514 -119 -84 -91 0
-514 -119 -84 -92 0
-514 -120 -84 -91 0
-514 -120 -84 -92 0
-514 -121 -84 -92 0
-514 -119 -94 -101 0
-514 -119 -94 -102 0
-514 -119 -94 -103 0
-514 -120 -94 -102 0
-514 -120 -94 -103 0
-514 -121 -94 -103 0
-514 -119 -95 -101 0
-514 -119 -95 -102 0
-514 -119 -95 -103 0
-514 -120 -95 -102 0
-514 -120 -95 -103 0
-514 -121 -95 -103 0
-514 146 0
-514 -119 152 0
-514 -120 153 0
-514 -121 154 0
-514 -164 0
-515 114 0
-515 -122 0
-515 -106 -119 -111 0
-515 -106 -120 -112 0
-515 -106 -121 -113 0
-515 -118 0
-515 -119 -84 -90 0
-515 -119 -84 -91 0
-515 -119 -84 -92 0
-515 -120 -84 -91 0
-515 -120 -84 -92 0
-515 -121 -84 -92 0
-515 -119 -85 -90 0
-515 -119 -85 -91 0
-515 -119 -85 -92 0
-515 -120 -85 -91 0
-515 -120 -85 -92 0
-515 -121 -85 -92 0
-515 -119 -95 -101 0
-515 -119 -95 -102 0
-515 -119 -95 -103 0
-515 -120 -95 -102 0
-515 -120 -95 -103 0
-515 -121 -95 -103 0
-515 -119 -96 -101 0
-515 -119 -96 -102 0
-515 -119 -96 -103 0
-515 -120 -96 -102 0
-515 -120 -96 -103 0
-515 -121 -96 -103 0
-515 147 0
-515 -119 152 0
-515 -120 153 0
-515 -121 154 0
-515 -164 0
-516 114 0
-516 -122 0
-516 -107 -119 -111 0
-516 -107 -120 -112 0
-516 -107 -121 -113 0
-516 -119 -85 -90 0
-516 -119 -85 -91 0
-516 -119 -85 -92 0
-516 -120 -85 -91 0
-516 -120 -85 -92 0
-516 -121 -85 -92 0
-516 -119 -86 -90 0
-516 -119 -86 -91 0
-516 -119 -86 -92 0
-516 -120 -86 -91 0
-516 -120 -86 -92 0
-516 -121 -86 -92 0
-516 -119 -96 -101 0
-516 -119 -96 -102 0
-516 -119 -96 -103 0
-516 -120 -96 -102 0
-516 -120 -96 -103 0
-516 -121 -96 -103 0
-516 -119 -97 -101 0
-516 -119 -97 -102 0
-516 -119 -97 -103 0
-516 -120 -97 -102 0
-516 -120 -97 -103 0
-516 -121 -97 -103 0
-516 148 0
-516 -119 152 0
-516 -120 153 0
-516 -121 154 0
-516 -164 0
-517 114 0
-517 -122 0
-517 -108 -119 -111 0
-517 -108 -120 -112 0
-517 -108 -121 -113 0
-517 -115 0
-517 -119 -86 -90 0
-517 -119 -86 -91 0
-517 -119 -86 -92 0
-517 -120 -86 -91 0
-517 -120 -86 -92 0
-517 -121 -86 -92 0
-517 -119 -87 -90 0
-517 -119 -87 -91 0
-517 -119 -87 -92 0
-517 -120 -87 -91 0
-517 -120 -87 -92 0
-517 -121 -87 -92 0
-517 -119 -97 -101 0
-517 -119 -97 -102 0
-517 -119 -97 -103 0
-517 -120 -97 -102 0
-517 -120 -97 -103 0
-517 -121 -97 -103 0
-517 -119 -98 -101 0
-517 -119 -98 -102 0
-517 -119 -98 -103 0
-517 -120 -98 -102 0
-517 -120 -98 -103 0
-517 -121 -98 -103 0
-517 149 0
-517 -119 152 0
-517 -120 153 0
-517 -121 154 0
-517 -164 0
-518 114 0
-518 -122 0
-518 -109 -119 -111 0
-518 -109 -120 -112 0
-518 -109 -121 -113 0
-518 -115 0
-518 -116 0
-518 -119 -87 -90 0
-518 -119 -87 -91 0
-518 -119 -87 -92 0
-518 -120 -87 -91 0
-518 -120 -87 -92 0
-518 -121 -87 -92 0
-518 -119 -88 -90 0
-518 -119 -88 -91 0
-518 -119 -88 -92 0
-518 -120 -88 -91 0
-518 -120 -88 -92 0
-518 -121 -88 -92 0
-518 -119 -98 -101 0
-518 -119 -98 -102 0
-518 -119 -98 -103 0
-518 -120 -98 -102 0
-518 -120 -98 -103 0
-518 -121 -98 -103 0
-518 -119 -99 -101 0
-518 -119 -99 -102 0
-518 -119 -99 -103 0
-518 -120 -99 -102 0
-518 -120 -99 -103 0
-518 -121 -99 -103 0
-518 150 0
-518 -119 152 0
-518 -120 153 0
-518 -121 154 0
-518 -164 0
-519 114 0
-519 -105 -110 0
-519 -83 -89 0
-519 -83 -90 0
-519 -83 -91 0
-519 -83 -92 0
-519 -84 -89 0
-519 -84 -90 0
-519 -84 -91 0
-519 -84 -92 0
-519 -94 -100 0
-519 -94 -101 0
-519 -94 -102 0
-519 -94 -103 0
-519 -95 -100 0
-519 -95 -101 0
-519 -95 -102 0
-519 -95 -103 0
-519 -115 -119 0
-519 -115 -120 0
-519 -115 -121 0
-519 -115 -122 0
-519 -116 -119 0
-519 -116 -120 0
-519 -116 -121 0
-519 -116 -122 0
-519 146 0
-519 151 0
-520 114 0
-520 -106 -110 0
-520 -84 -89 0
-520 -84 -90 0
-520 -84 -91 0
-520 -84 -92 0
-520 -85 -89 0
-520 -85 -90 0
-520 -85 -91 0
-520 -85 -92 0
-520 -95 -100 0
-520 -95 -101 0
-520 -95 -102 0
-520 -95 -103 0
-520 -96 -100 0
-520 -96 -101 0
-520 -96 -102 0
-520 -96 -103 0
-520 -115 -119 0
-520 -115 -120 0
-520 -115 -121 0
-520 -115 -122 0
-520 -116 -119 0
-520 -116 -120 0
-520 -116 -121 0
-520 -116 -122 0
-520 -117 -119 0
-520 -117 -120 0
-520 -117 -121 0
-520 -117 -122 0
-520 147 0
-520 151 0
-521 114 0
-521 -107 -110 0
-521 -85 -89 0
-521 -85 -90 0
-521 -85 -91 0
-521 -85 -92 0
-521 -86 -89 0
-521 -86 -90 0
-521 -86 -91 0
-521 -86 -92 0
-521 -96 -100 0
-521 -96 -101 0
-521 -96 -102 0
-521 -96 -103 0
-521 -97 -100 0
-521 -97 -101 0
-521 -97 -102 0
-521 -97 -103 0
-521 -115 -119 0
-521 -115 -120 0
-521 -115 -121 0
-521 -115 -122 0
-521 -116 -119 0
-521 -116 -120 0
-521 -116 -121 0
-521 -116 -122 0
-521 -117 -119 0
-521 -117 -120 0
-521 -117 -121 0
-521 -117 -122 0
-521 -118 -119 0
-521 -118 -120 0
-521 -118 -121 0
-521 -118 -122 0
-521 148 0
-521 151 0
-522 114 0
-522 -108 -110 0
-522 -86 -89 0
-522 -86 -90 0
-522 -86 -91 0
-522 -86 -92 0
-522 -87 -89 0
-522 -87 -90 0
-522 -87 -91 0
-522 -87 -92 0
-522 -97 -100 0
-522 -97 -101 0
-522 -97 -102 0
-522 -97 -103 0
-522 -98 -100 0
-522 -98 -101 0
-522 -98 -102 0
-522 -98 -103 0
-522 -116 -119 0
-522 -116 -120 0
-522 -116 -121 0
-522 -116 -122 0
-522 -117 -119 0
-522 -117 -120 0
-522 -117 -121 0
-522 -117 -122 0
-522 -118 -119 0
-522 -118 -120 0
-522 -118 -121 0
-522 -118 -122 0
-522 149 0
-522 151 0
-523 114 0
-523 -109 -110 0
-523 -87 -89 0
-523 -87 -90 0
-523 -87 -91 0
-523 -87 -92 0
-523 -88 -89 0
-523 -88 -90 0
-523 -88 -91 0
-523 -88 -92 0
-523 -98 -100 0
-523 -98 -101 0
-523 -98 -102 0
-523 -98 -103 0
-523 -99 -100 0
-523 -99 -101 0
-523 -99 -102 0
-523 -99 -103 0
-523 -117 -119 0
-523 -117 -120 0
-523 -117 -121 0
-523 -117 -122 0
-523 -118 -119 0
-523 -118 -120 0
-523 -118 -121 0
-523 -118 -122 0
-523 150 0
-523 151 0
-524 123 0
-524 -92 0
-524 -115 -89 -120 0
-524 -115 -90 -121 0
-524 -115 -91 -122 0
-524 -86 0
-524 -87 0
-524 -88 0
-524 -89 -94 -101 0
-524 -89 -94 -102 0
-524 -89 -94 -103 0
-524 -90 -94 -102 0
-524 -90 -94 -103 0
-524 -91 -94 -103 0
-524 -89 -95 -101 0
-524 -89 -95 -102 0
-524 -89 -95 -103 0
-524 -90 -95 -102 0
-524 -90 -95 -103 0
-524 -91 -95 -103 0
-524 -89 -96 -101 0
-524 -89 -96 -102 0
-524 -89 -96 -103 0
-524 -90 -96 -102 0
-524 -90 -96 -103 0
-524 -91 -96 -103 0
-524 -89 -105 -111 0
-524 -89 -105 -112 0
-524 -89 -105 -113 0
-524 -90 -105 -112 0
-524 -90 -105 -113 0
-524 -91 -105 -113 0
-524 -89 -106 -111 0
-524 -89 -106 -112 0
-524 -89 -106 -113 0
-524 -90 -106 -112 0
-524 -90 -106 -113 0
-524 -91 -106 -113 0
-524 -89 -107 -111 0
-524 -89 -107 -112 0
-524 -89 -107 -113 0
-524 -90 -107 -112 0
-524 -90 -107 -113 0
-524 -91 -107 -113 0
-524 156 0
-524 -89 161 0
-524 -90 162 0
-524 -91 163 0
-524 -134 0
-525 123 0
-525 -92 0
-525 -116 -89 -120 0
-525 -116 -90 -121 0
-525 -116 -91 -122 0
-525 -83 0
-525 -87 0
-525 -88 0
-525 -89 -95 -101 0
-525 -89 -95 -102 0
-525 -89 -95 -103 0
-525 -90 -95 -102 0
-525 -90 -95 -103 0
-525 -91 -95 -103 0
-525 -89 -96 -101 0
-525 -89 -96 -102 0
-525 -89 -96 -103 0
-525 -90 -96 -102 0
-525 -90 -96 -103 0
-525 -91 -96 -103 0
-525 -89 -97 -101 0
-525 -89 -97 -102 0
-525 -89 -97 -103 0
-525 -90 -97 -102 0
-525 -90 -97 -103 0
-525 -91 -97 -103 0
-525 -89 -105 -111 0
-525 -89 -105 -112 0
-525 -89 -105 -113 0
-525 -90 -105 -112 0
-525 -90 -105 -113 0
-525 -91 -105 -113 0
-525 -89 -106 -111 0
-525 -89 -106 -112 0
-525 -89 -106 -113 0
-525 -90 -106 -112 0
-525 -90 -106 -113 0
-525 -91 -106 -113 0
-525 -89 -107 -111 0
-525 -89 -107 -112 0
-525 -89 -107 -113 0
-525 -90 -107 -112 0
-525 -90 -107 -113 0
-525 -91 -107 -113 0
-525 -89 -108 -111 0
-525 -89 -108 -112 0
-525 -89 -108 -113 0
-525 -90 -108 -112 0
-525 -90 -108 -113 0
-525 -91 -108 -113 0
-525 157 0
-525 -89 161 0
-525 -90 162 0
-525 -91 163 0
-525 -134 0
-526 123 0
-526 -92 0
-526 -117 -89 -120 0
-526 -117 -90 -121 0
-526 -117 -91 -122 0
-526 -83 0
-526 -84 0
-526 -88 0
-526 -89 -96 -101 0
-526 -89 -96 -102 0
-526 -89 -96 -103 0
-526 -90 -96 -102 0
-526 -90 -96 -103 0
-526 -91 -96 -103 0
-526 -89 -97 -101 0
-526 -89 -97 -102 0
-526 -89 -97 -103 0
-526 -90 -97 -102 0
-526 -90 -97 -103 0
-526 -91 -97 -103 0
-526 -89 -98 -101 0
-526 -89 -98 -102 0
-526 -89 -98 -103 0
-526 -90 -98 -102 0
-526 -90 -98 -103 0
-526 -91 -98 -103 0
-526 -89 -106 -111 0
-526 -89 -106 -112 0
-526 -89 -106 -113 0
-526 -90 -106 -112 0
-526 -90 -106 -113 0
-526 -91 -106 -113 0
-526 -89 -107 -111 0
-526 -89 -107 -112 0
-526 -89 -107 -113 0
-526 -90 -107 -112 0
-526 -90 -107 -113 0
-526 -91 -107 -113 0
-526 -89 -108 -111 0
-526 -89 -108 -112 0
-526 -89 -108 -113 0
-526 -90 -108 -112 0
-526 -90 -108 -113 0
-526 -91 -108 -113 0
-526 -89 -109 -111 0
-526 -89 -109 -112 0
-526 -89 -109 -113 0
-526 -90 -109 -112 0
-526 -90 -109 -113 0
-526 -91 -109 -113 0
-526 158 0
-526 -89 161 0
-526 -90 162 0
-526 -91 163 0
-526 -134 0
-527 123 0
-527 -92 0
-527 -118 -89 -120 0
-527 -118 -90 -121 0
-527 -118 -91 -122 0
-527 -83 0
-527 -84 0
-527 -85 0
-527 -89 -97 -101 0
-527 -89 -97 -102 0
-527 -89 -97 -103 0
-527 -90 -97 -102 0
-527 -90 -97 -103 0
-527 -91 -97 -103 0
-527 -89 -98 -101 0
-527 -89 -98 -102 0
-527 -89 -98 -103 0
-527 -90 -98 -102 0
-527 -90 -98 -103 0
-527 -91 -98 -103 0
-527 -89 -99 -101 0
-527 -89 -99 -102 0
-527 -89 -99 -103 0
-527 -90 -99 -102 0
-527 -90 -99 -103 0
-527 -91 -99 -103 0
-527 -89 -107 -111 0
-527 -89 -107 -112 0
-527 -89 -107 -113 0
-527 -90 -107 -112 0
-527 -90 -107 -113 0
-527 -91 -107 -113 0
-527 -89 -108 -111 0
-527 -89 -108 -112 0
-527 -89 -108 -113 0
-527 -90 -108 -112 0
-527 -90 -108 -113 0
-527 -91 -108 -113 0
-527 -89 -109 -111 0
-527 -89 -109 -112 0
-527 -89 -109 -113 0
-527 -90 -109 -112 0
-527 -90 -109 -113 0
-527 -91 -109 -113 0
-527 159 0
-527 -89 161 0
-527 -90 162 0
-527 -91 163 0
-527 -134 0
-528 123 0
-528 -103 0
-528 -115 -100 -120 0
-528 -115 -101 -121 0
-528 -115 -102 -122 0
-528 -97 0
-528 -98 0
-528 -99 0
-528 -100 -83 -90 0
-528 -100 -83 -91 0
-528 -100 -83 -92 0
-528 -101 -83 -91 0
-528 -101 -83 -92 0
-528 -102 -83 -92 0
-528 -100 -84 -90 0
-528 -100 -84 -91 0
-528 -100 -84 -92 0
-528 -101 -84 -91 0
-528 -101 -84 -92 0
-528 -102 -84 -92 0
-528 -100 -85 -90 0
-528 -100 -85 -91 0
-528 -100 -85 -92 0
-528 -101 -85 -91 0
-528 -101 -85 -92 0
-528 -102 -85 -92 0
-528 -100 -105 -111 0
-528 -100 -105 -112 0
-528 -100 -105 -113 0
-528 -101 -105 -112 0
-528 -101 -105 -113 0
-528 -102 -105 -113 0
-528 -100 -106 -111 0
-528 -100 -106 -112 0
-528 -100 -106 -113 0
-528 -101 -106 -112 0
-528 -101 -106 -113 0
-528 -102 -106 -113 0
-528 -100 -107 -111 0
-528 -100 -107 -112 0
-528 -100 -107 -113 0
-528 -101 -107 -112 0
-528 -101 -107 -113 0
-528 -102 -107 -113 0
-528 156 0
-528 -100 161 0
-528 -101 162 0
-528 -102 163 0
-528 -145 0
-529 123 0
-529 -103 0
-529 -116 -100 -120 0
-529 -116 -101 -121 0
-529 -116 -102 -122 0
-529 -94 0
-529 -98 0
-529 -99 0
-529 -100 -84 -90 0
-529 -100 -84 -91 0
-529 -100 -84 -92 0
-529 -101 -84 -91 0
-529 -101 -84 -92 0
-529 -102 -84 -92 0
-529 -100 -85 -90 0
-529 -100 -85 -91 0
-529 -100 -85 -92 0
-529 -101 -85 -91 0
-529 -101 -85 -92 0
-529 -102 -85 -92 0
-529 -100 -86 -90 0
-529 -100 -86 -91 0
-529 -100 -86 -92 0
-529 -101 -86 -91 0
-529 -101 -86 -92 0
-529 -102 -86 -92 0
-529 -100 -105 -111 0
-529 -100 -105 -112 0
-529 -100 -105 -113 0
-529 -101 -105 -112 0
-529 -101 -105 -113 0
-529 -102 -105 -113 0
-529 -100 -106 -111 0
-529 -100 -106 -112 0
-529 -100 -106 -113 0
-529 -101 -106 -112 0
-529 -101 -106 -113 0
-529 -102 -106 -113 0
-529 -100 -107 -111 0
-529 -100 -107 -112 0
-529 -100 -107 -113 0
-529 -101 -107 -112 0
-529 -101 -107 -113 0
-529 -102 -107 -113 0
-529 -100 -108 -111 0
-529 -100 -108 -112 0
-529 -100 -108 -113 0
-529 -101 -108 -112 0
-529 -101 -108 -113 0
-529 -102 -108 -113 0
-529 157 0
-529 -100 161 0
-529 -101 162 0
-529 -102 163 0
-529 -145 0
-530 123 0
-530 -103 0
-530 -117 -100 -120 0
-530 -117 -101 -121 0
-530 -117 -102 -122 0
-530 -94 0
-530 -95 0
-530 -99 0
-530 -100 -85 -90 0
-530 -100 -85 -91 0
-530 -100 -85 -92 0
-530 -101 -85 -91 0
-530 -101 -85 -92 0
-530 -102 -85 -92 0
-530 -100 -86 -90 0
-530 -100 -86 -91 0
-530 -100 -86 -92 0
-530 -101 -86 -91 0
-530 -101 -86 -92 0
-530 -102 -86 -92 0
-530 -100 -87 -90 0
-530 -100 -87 -91 0
-530 -100 -87 -92 0
-530 -101 -87 -91 0
-530 -101 -87 -92 0
-530 -102 -87 -92 0
-530 -100 -106 -111 0
-530 -100 -106 -112 0
-530 -100 -106 -113 0
-530 -101 -106 -112 0
-530 -101 -106 -113 0
-530 -102 -106 -113 0
-530 -100 -107 -111 0
-530 -100 -107 -112 0
-530 -100 -107 -113 0
-530 -101 -107 -112 0
-530 -101 -107 -113 0
-530 -102 -107 -113 0
-530 -100 -108 -111 0
-530 -100 -108 -112 0
-530 -100 -108 -113 0
-530 -101 -108 -112 0
-530 -101 -108 -113 0
-530 -102 -108 -113 0
-530 -100 -109 -111 0
-530 -100 -109 -112 0
-530 -100 -109 -113 0
-530 -101 -109 -112 0
-530 -101 -109 -113 0
-530 -102 -109 -113 0
-530 158 0
-530 -100 161 0
-530 -101 162 0
-530 -102 163 0
-530 -145 0
-531 123 0
-531 -103 0
-531 -118 -100 -120 0
-531 -118 -101 -121 0
-531 -118 -102 -122 0
-531 -94 0
-531 -95 0
-531 -96 0
-531 -100 -86 -90 0
-531 -100 -86 -91 0
-531 -100 -86 -92 0
-531 -101 -86 -91 0
-531 -101 -86 -92 0
-531 -102 -86 -92 0
-531 -100 -87 -90 0
-531 -100 -87 -91 0
-531 -100 -87 -92 0
-531 -101 -87 -91 0
-531 -101 -87 -92 0
-531 -102 -87 -92 0
-531 -100 -88 -90 0
-531 -100 -88 -91 0
-531 -100 -88 -92 0
-531 -101 -88 -91 0
-531 -101 -88 -92 0
-531 -102 -88 -92 0
-531 -100 -107 -111 0
-531 -100 -107 -112 0
-531 -100 -107 -113 0
-531 -101 -107 -112 0
-531 -101 -107 -113 0
-531 -102 -107 -113 0
-531 -100 -108 -111 0
-531 -100 -108 -112 0
-531 -100 -108 -113 0
-531 -101 -108 -112 0
-531 -101 -108 -113 0
-531 -102 -108 -113 0
-531 -100 -109 -111 0
-531 -100 -109 -112 0
-531 -100 -109 -113 0
-531 -101 -109 -112 0
-531 -101 -109 -113 0
-531 -102 -109 -113 0
-531 159 0
-531 -100 161 0
-531 -101 162 0
-531 -102 163 0
-531 -145 0
-532 123 0
-532 -113 0
-532 -115 -110 -120 0
-532 -115 -111 -121 0
-532 -115 -112 -122 0
-532 -108 0
-532 -109 0
-532 -110 -83 -90 0
-532 -110 -83 -91 0
-532 -110 -83 -92 0
-532 -111 -83 -91 0
-532 -111 -83 -92 0
-532 -112 -83 -92 0
-532 -110 -84 -90 0
-532 -110 -84 -91 0
-532 -110 -84 -92 0
-532 -111 -84 -91 0
-532 -111 -84 -92 0
-532 -112 -84 -92 0
-532 -110 -85 -90 0
-532 -110 -85 -91 0
-532 -110 -85 -92 0
-532 -111 -85 -91 0
-532 -111 -85 -92 0
-532 -112 -85 -92 0
-532 -110 -94 -101 0
-532 -110 -94 -102 0
-532 -110 -94 -103 0
-532 -111 -94 -102 0
-532 -111 -94 -103 0
-532 -112 -94 -103 0
-532 -110 -95 -101 0
-532 -110 -95 -102 0
-532 -110 -95 -103 0
-532 -111 -95 -102 0
-532 -111 -95 -103 0
-532 -112 -95 -103 0
-532 -110 -96 -101 0
-532 -110 -96 -102 0
-532 -110 -96 -103 0
-532 -111 -96 -102 0
-532 -111 -96 -103 0
-532 -112 -96 -103 0
-532 156 0
-532 -110 161 0
-532 -111 162 0
-532 -112 163 0
-532 -155 0
-533 123 0
-533 -113 0
-533 -116 -110 -120 0
-533 -116 -111 -121 0
-533 -116 -112 -122 0
-533 -109 0
-533 -110 -84 -90 0
-533 -110 -84 -91 0
-533 -110 -84 -92 0
-533 -111 -84 -91 0
-533 -111 -84 -92 0
-533 -112 -84 -92 0
-533 -110 -85 -90 0
-533 -110 -85 -91 0
-533 -110 -85 -92 0
-533 -111 -85 -91 0
-533 -111 -85 -92 0
-533 -112 -85 -92 0
-533 -110 -86 -90 0
-533 -110 -86 -91 0
-533 -110 -86 -92 0
-533 -111 -86 -91 0
-533 -111 -86 -92 0
-533 -112 -86 -92 0
-533 -110 -95 -101 0
-533 -110 -95 -102 0
-533 -110 -95 -103 0
-533 -111 -95 -102 0
-533 -111 -95 -103 0
-533 -112 -95 -103 0
-533 -110 -96 -101 0
-533 -110 -96 -102 0
-533 -110 -96 -103 0
-533 -111 -96 -102 0
-533 -111 -96 -103 0
-533 -112 -96 -103 0
-533 -110 -97 -101 0
-533 -110 -97 -102 0
-533 -110 -97 -103 0
-533 -111 -97 -102 0
-533 -111 -97 -103 0
-533 -112 -97 -103 0
-533 157 0
-533 -110 161 0
-533 -111 162 0
-533 -112 163 0
-533 -155 0
-534 123 0
-534 -113 0
-534 -117 -110 -120 0
-534 -117 -111 -121 0
-534 -117 -112 -122 0
-534 -105 0
-534 -110 -85 -90 0
-534 -110 -85 -91 0
-534 -110 -85 -92 0
-534 -111 -85 -91 0
-534 -111 -85 -92 0
-534 -112 -85 -92 0
-534 -110 -86 -90 0
-534 -110 -86 -91 0
-534 -110 -86 -92 0
-534 -111 -86 -91 0
-534 -111 -86 -92 0
-534 -112 -86 -92 0
-534 -110 -87 -90 0
-534 -110 -87 -91 0
-534 -110 -87 -92 0
-534 -111 -87 -91 0
-534 -111 -87 -92 0
-534 -112 -87 -92 0
-534 -110 -96 -101 0
-534 -110 -96 -102 0
-534 -110 -96 -103 0
-534 -111 -96 -102 0
-534 -111 -96 -103 0
-534 -112 -96 -103 0
-534 -110 -97 -101 0
-534 -110 -97 -102 0
-534 -110 -97 -103 0
-534 -111 -97 -102 0
-534 -111 -97 -103 0
-534 -112 -97 -103 0
-534 -110 -98 -101 0
-534 -110 -98 -102 0
-534 -110 -98 -103 0
-534 -111 -98 -102 0
-534 -111 -98 -103 0
-534 -112 -98 -103 0
-534 158 0
-534 -110 161 0
-534 -111 162 0
-534 -112 163 0
-534 -155 0
-535 123 0
-535 -113 0
-535 -118 -110 -120 0
-535 -118 -111 -121 0
-535 -118 -112 -122 0
-535 -105 0
-535 -106 0
-535 -110 -86 -90 0
-535 -110 -86 -91 0
-535 -110 -86 -92 0
-535 -111 -86 -91 0
-535 -111 -86 -92 0
-535 -112 -86 -92 0
-535 -110 -87 -90 0
-535 -110 -87 -91 0
-535 -110 -87 -92 0
-535 -111 -87 -91 0
-535 -111 -87 -92 0
-535 -112 -87 -92 0
-535 -110 -88 -90 0
-535 -110 -88 -91 0
-535 -110 -88 -92 0
-535 -111 -88 -91 0
-535 -111 -88 -92 0
-535 -112 -88 -92 0
-535 -110 -97 -101 0
-535 -110 -97 -102 0
-535 -110 -97 -103 0
-535 -111 -97 -102 0
-535 -111 -97 -103 0
-535 -112 -97 -103 0
-535 -110 -98 -101 0
-535 -110 -98 -102 0
-535 -110 -98 -103 0
-535 -111 -98 -102 0
-535 -111 -98 -103 0
-535 -112 -98 -103 0
-535 -110 -99 -101 0
-535 -110 -99 -102 0
-535 -110 -99 -103 0
-535 -111 -99 -102 0
-535 -111 -99 -103 0
-535 -112 -99 -103 0
-535 159 0
-535 -110 161 0
-535 -111 162 0
-535 -112 163 0
-535 -155 0
-536 123 0
-536 -115 -119 0
-536 -83 -89 0
-536 -83 -90 0
-536 -83 -91 0
-536 -83 -92 0
-536 -84 -89 0
-536 -84 -90 0
-536 -84 -91 0
-536 -84 -92 0
-536 -85 -89 0
-536 -85 -90 0
-536 -85 -91 0
-536 -85 -92 0
-536 -94 -100 0
-536 -94 -101 0
-536 -94 -102 0
-536 -94 -103 0
-536 -95 -100 0
-536 -95 -101 0
-536 -95 -102 0
-536 -95 -103 0
-536 -96 -100 0
-536 -96 -101 0
-536 -96 -102 0
-536 -96 -103 0
-536 -105 -110 0
-536 -105 -111 0
-536 -105 -112 0
-536 -105 -113 0
-536 -106 -110 0
-536 -106 -111 0
-536 -106 -112 0
-536 -106 -113 0
-536 -107 -110 0
-536 -107 -111 0
-536 -107 -112 0
-536 -107 -113 0
-536 156 0
-536 160 0
-537 123 0
-537 -116 -119 0
-537 -84 -89 0
-537 -84 -90 0
-537 -84 -91 0
-537 -84 -92 0
-537 -85 -89 0
-537 -85 -90 0
-537 -85 -91 0
-537 -85 -92 0
-537 -86 -89 0
-537 -86 -90 0
-537 -86 -91 0
-537 -86 -92 0
-537 -95 -100 0
-537 -95 -101 0
-537 -95 -102 0
-537 -95 -103 0
-537 -96 -100 0
-537 -96 -101 0
-537 -96 -102 0
-537 -96 -103 0
-537 -97 -100 0
-537 -97 -101 0
-537 -97 -102 0
-537 -97 -103 0
-537 -105 -110 0
-537 -105 -111 0
-537 -105 -112 0
-537 -105 -113 0
-537 -106 -110 0
-537 -106 -111 0
-537 -106 -112 0
-537 -106 -113 0
-537 -107 -110 0
-537 -107 -111 0
-537 -107 -112 0
-537 -107 -113 0
-537 -108 -110 0
-537 -108 -111 0
-537 -108 -112 0
-537 -108 -113 0
-537 157 0
-537 160 0
-538 123 0
-538 -117 -119 0
-538 -85 -89 0
-538 -85 -90 0
-538 -85 -91 0
-538 -85 -92 0
-538 -86 -89 0
-538 -86 -90 0
-538 -86 -91 0
-538 -86 -92 0
-538 -87 -89 0
-538 -87 -90 0
-538 -87 -91 0
-538 -87 -92 0
-538 -96 -100 0
-538 -96 -101 0
-538 -96 -102 0
-538 -96 -103 0
-538 -97 -100 0
-538 -97 -101 0
-538 -97 -102 0
-538 -97 -103 0
-538 -98 -100 0
-538 -98 -101 0
-538 -98 -102 0
-538 -98 -103 0
-538 -106 -110 0
-538 -106 -111 0
-538 -106 -112 0
-538 -106 -113 0
-538 -107 -110 0
-538 -107 -111 0
-538 -107 -112 0
-538 -107 -113 0
-538 -108 -110 0
-538 -108 -111 0
-538 -108 -112 0
-538 -108 -113 0
-538 -109 -110 0
-538 -109 -111 0
-538 -109 -112 0
-538 -109 -113 0
-538 158 0
-538 160 0
-539 123 0
-539 -118 -119 0
-539 -86 -89 0
-539 -86 -90 0
-539 -86 -91 0
-539 -86 -92 0
-539 -87 -89 0
-539 -87 -90 0
-539 -87 -91 0
-539 -87 -92 0
-539 -88 -89 0
-539 -88 -90 0
-539 -88 -91 0
-539 -88 -92 0
-539 -97 -100 0
-539 -97 -101 0
-539 -97 -102 0
-539 -97 -103 0
-539 -98 -100 0
-539 -98 -101 0
-539 -98 -102 0
-539 -98 -103 0
-539 -99 -100 0
-539 -99 -101 0
-539 -99 -102 0
-539 -99 -103 0
-539 -107 -110 0
-539 -107 -111 0
-539 -107 -112 0
-539 -107 -113 0
-539 -108 -110 0
-539 -108 -111 0
-539 -108 -112 0
-539 -108 -113 0
-539 -109 -110 0
-539 -109 -111 0
-539 -109 -112 0
-539 -109 -113 0
-539 159 0
-539 160 0
-540 134 0
-540 -144 0
-540 -124 -141 -131 0
-540 -124 -142 -132 0
-540 -124 -143 -133 0
-540 -136 0
-540 -137 0
-540 -138 0
-540 -139 0
-540 -140 0
-540 -141 -146 -152 0
-540 -141 -146 -153 0
-540 -141 -146 -154 0
-540 -142 -146 -153 0
-540 -142 -146 -154 0
-540 -143 -146 -154 0
-540 -141 -156 -161 0
-540 -141 -156 -162 0
-540 -141 -156 -163 0
-540 -142 -156 -162 0
-540 -142 -156 -163 0
-540 -143 -156 -163 0
-540 165 0
-540 -141 172 0
-540 -142 173 0
-540 -143 174 0
-540 -186 0
-541 134 0
-541 -144 0
-541 -125 -141 -131 0
-541 -125 -142 -132 0
-541 -125 -143 -133 0
-541 -135 0
-541 -137 0
-541 -138 0
-541 -139 0
-541 -140 0
-541 -141 -146 -152 0
-541 -141 -146 -153 0
-541 -141 -146 -154 0
-541 -142 -146 -153 0
-541 -142 -146 -154 0
-541 -143 -146 -154 0
-541 -141 -147 -152 0
-541 -141 -147 -153 0
-541 -141 -147 -154 0
-541 -142 -147 -153 0
-541 -142 -147 -154 0
-541 -143 -147 -154 0
-541 -141 -156 -161 0
-541 -141 -156 -162 0
-541 -141 -156 -163 0
-541 -142 -156 -162 0
-541 -142 -156 -163 0
-541 -143 -156 -163 0
-541 -141 -157 -161 0
-541 -141 -157 -162 0
-541 -141 -157 -163 0
-541 -142 -157 -162 0
-541 -142 -157 -163 0
-541 -143 -157 -163 0
-541 166 0
-541 -141 172 0
-541 -142 173 0
-541 -143 174 0
-541 -186 0
-542 134 0
-542 -144 0
-542 -126 -141 -131 0
-542 -126 -142 -132 0
-542 -126 -143 -133 0
-542 -135 0
-542 -136 0
-542 -138 0
-542 -139 0
-542 -140 0
-542 -141 -147 -152 0
-542 -141 -147 -153 0
-542 -141 -147 -154 0
-542 -142 -147 -153 0
-542 -142 -147 -154 0
-542 -143 -147 -154 0
-542 -141 -148 -152 0
-542 -141 -148 -153 0
-542 -141 -148 -154 0
-542 -142 -148 -153 0
-542 -142 -148 -154 0
-542 -143 -148 -154 0
-542 -141 -156 -161 0
-542 -141 -156 -162 0
-542 -141 -156 -163 0
-542 -142 -156 -162 0
-542 -142 -156 -163 0
-542 -143 -156 -163 0
-542 -141 -157 -161 0
-542 -141 -157 -162 0
-542 -141 -157 -163 0
-542 -142 -157 -162 0
-542 -142 -157 -163 0
-542 -143 -157 -163 0
-542 -141 -158 -161 0
-542 -141 -158 -162 0
-542 -141 -158 -163 0
-542 -142 -158 -162 0
-542 -142 -158 -163 0
-542 -143 -158 -163 0
-542 167 0
-542 -141 172 0
-542 -142 173 0
-542 -143 174 0
-542 -186 0
-543 134 0
-543 -144 0
-543 -127 -141 -131 0
-543 -127 -142 -132 0
-543 -127 -143 -133 0
-543 -135 0
-543 -136 0
-543 -137 0
-543 -139 0
-543 -140 0
-543 -141 -148 -152 0
-543 -141 -148 -153 0
-543 -141 -148 -154 0
-543 -142 -148 -153 0
-543 -142 -148 -154 0
-543 -143 -148 -154 0
-543 -141 -149 -152 0
-543 -141 -149 -153 0
-543 -141 -149 -154 0
-543 -142 -149 -153 0
-543 -142 -149 -154 0
-543 -143 -149 -154 0
-543 -141 -157 -161 0
-543 -141 -157 -162 0
-543 -141 -157 -163 0
-543 -142 -157 -162 0
-543 -142 -157 -163 0
-543 -143 -157 -163 0
-543 -141 -158 -161 0
-543 -141 -158 -162 0
-543 -141 -158 -163 0
-543 -142 -158 -162 0
-543 -142 -158 -163 0
-543 -143 -158 -163 0
-543 -141 -159 -161 0
-543 -141 -159 -162 0
-543 -141 -159 -163 0
-543 -142 -159 -162 0
-543 -142 -159 -163 0
-543 -143 -159 -163 0
-543 168 0
-543 -141 172 0
-543 -142 173 0
-543 -143 174 0
-543 -186 0
-544 134 0
-544 -144 0
-544 -128 -141 -131 0
-544 -128 -142 -132 0
-544 -128 -143 -133 0
-544 -135 0
-544 -136 0
-544 -137 0
-544 -138 0
-544 -140 0
-544 -141 -149 -152 0
-544 -141 -149 -153 0
-544 -141 -149 -154 0
-544 -142 -149 -153 0
-544 -142 -149 -154 0
-544 -143 -149 -154 0
-544 -141 -150 -152 0
-544 -141 -150 -153 0
-544 -141 -150 -154 0
-544 -142 -150 -153 0
-544 -142 -150 -154 0
-544 -143 -150 -154 0
-544 -141 -158 -161 0
-544 -141 -158 -162 0
-544 -141 -158 -163 0
-544 -142 -158 -162 0
-544 -142 -158 -163 0
-544 -143 -158 -163 0
-544 -141 -159 -161 0
-544 -141 -159 -162 0
-544 -141 -159 -163 0
-544 -142 -159 -162 0
-544 -142 -159 -163 0
-544 -143 -159 -163 0
-544 169 0
-544 -141 172 0
-544 -142 173 0
-544 -143 174 0
-544 -186 0
-545 134 0
-545 -144 0
-545 -129 -141 -131 0
-545 -129 -142 -132 0
-545 -129 -143 -133 0
-545 -135 0
-545 -136 0
-545 -137 0
-545 -138 0
-545 -139 0
-545 -141 -150 -152 0
-545 -141 -150 -153 0
-545 -141 -150 -154 0
-545 -142 -150 -153 0
-545 -142 -150 -154 0
-545 -143 -150 -154 0
-545 -141 -159 -161 0
-545 -141 -159 -162 0
-545 -141 -159 -163 0
-545 -142 -159 -162 0
-545 -142 -159 -163 0
-545 -143 -159 -163 0
-545 170 0
-545 -141 172 0
-545 -142 173 0
-545 -143 174 0
-545 -186 0
-546 134 0
-546 -154 0
-546 -124 -151 -131 0
-546 -124 -152 -132 0
-546 -124 -153 -133 0
-546 -147 0
-546 -148 0
-546 -149 0
-546 -150 0
-546 -151 -135 -142 0
-546 -151 -135 -143 0
-546 -151 -135 -144 0
-546 -152 -135 -143 0
-546 -152 -135 -144 0
-546 -153 -135 -144 0
-546 -151 -156 -161 0
-546 -151 -156 -162 0
-546 -151 -156 -163 0
-546 -152 -156 -162 0
-546 -152 -156 -163 0
-546 -153 -156 -163 0
-546 165 0
-546 -151 172 0
-546 -152 173 0
-546 -153 174 0
-546 -196 0
-547 134 0
-547 -154 0
-547 -125 -151 -131 0
-547 -125 -152 -132 0
-547 -125 -153 -133 0
-547 -148 0
-547 -149 0
-547 -150 0
-547 -151 -136 -142 0
-547 -151 -136 -143 0
-547 -151 -136 -144 0
-547 -152 -136 -143 0
-547 -152 -136 -144 0
-547 -153 -136 -144 0
-547 -151 -156 -161 0
-547 -151 -156 -162 0
-547 -151 -156 -163 0
-547 -152 -156 -162 0
-547 -152 -156 -163 0
-547 -153 -156 -163 0
-547 -151 -157 -161 0
-547 -151 -157 -162 0
-547 -151 -157 -163 0
-547 -152 -157 -162 0
-547 -152 -157 -163 0
-547 -153 -157 -163 0
-547 166 0
-547 -151 172 0
-547 -152 173 0
-547 -153 174 0
-547 -196 0
-548 134 0
-548 -154 0
-548 -126 -151 -131 0
-548 -126 -152 -132 0
-548 -126 -153 -133 0
-548 -146 0
-548 -149 0
-548 -150 0
-548 -151 -137 -142 0
-548 -151 -137 -143 0
-548 -151 -137 -144 0
-548 -152 -137 -143 0
-548 -152 -137 -144 0
-548 -153 -137 -144 0
-548 -151 -156 -161 0
-548 -151 -156 -162 0
-548 -151 -156 -163 0
-548 -152 -156 -162 0
-548 -152 -156 -163 0
-548 -153 -156 -163 0
-548 -151 -157 -161 0
-548 -151 -157 -162 0
-548 -151 -157 -163 0
-548 -152 -157 -162 0
-548 -152 -157 -163 0
-548 -153 -157 -163 0
-548 -151 -158 -161 0
-548 -151 -158 -162 0
-548 -151 -158 -163 0
-548 -152 -158 -162 0
-548 -152 -158 -163 0
-548 -153 -158 -163 0
-548 167 0
-548 -151 172 0
-548 -152 173 0
-548 -153 174 0
-548 -196 0
-549 134 0
-549 -154 0
-549 -127 -151 -131 0
-549 -127 -152 -132 0
-549 -127 -153 -133 0
-549 -146 0
-549 -147 0
-549 -150 0
-549 -151 -138 -142 0
-549 -151 -138 -143 0
-549 -151 -138 -144 0
-549 -152 -138 -143 0
-549 -152 -138 -144 0
-549 -153 -138 -144 0
-549 -151 -157 -161 0
-549 -151 -157 -162 0
-549 -151 -157 -163 0
-549 -152 -157 -162 0
-549 -152 -157 -163 0
-549 -153 -157 -163 0
-549 -151 -158 -161 0
-549 -151 -158 -162 0
-549 -151 -158 -163 0
-549 -152 -158 -162 0
-549 -152 -158 -163 0
-549 -153 -158 -163 0
-549 -151 -159 -161 0
-549 -151 -159 -162 0
-549 -151 -159 -163 0
-549 -152 -159 -162 0
-549 -152 -159 -163 0
-549 -153 -159 -163 0
-549 168 0
-549 -151 172 0
-549 -152 173 0
-549 -153 174 0
-549 -196 0
-550 134 0
-550 -154 0
-550 -128 -151 -131 0
-550 -128 -152 -132 0
-550 -128 -153 -133 0
-550 -146 0
-550 -147 0
-550 -148 0
-550 -151 -139 -142 0
-550 -151 -139 -143 0
-550 -151 -139 -144 0
-550 -152 -139 -143 0
-550 -152 -139 -144 0
-550 -153 -139 -144 0
-550 -151 -158 -161 0
-550 -151 -158 -162 0
-550 -151 -158 -163 0
-550 -152 -158 -162 0
-550 -152 -158 -163 0
-550 -153 -158 -163 0
-550 -151 -159 -161 0
-550 -151 -159 -162 0
-550 -151 -159 -163 0
-550 -152 -159 -162 0
-550 -152 -159 -163 0
-550 -153 -159 -163 0
-550 169 0
-550 -151 172 0
-550 -152 173 0
-550 -153 174 0
-550 -196 0
-551 134 0
-551 -154 0
-551 -129 -151 -131 0
-551 -129 -152 -132 0
-551 -129 -153 -133 0
-551 -146 0
-551 -147 0
-551 -148 0
-551 -149 0
-551 -151 -140 -142 0
-551 -151 -140 -143 0
-551 -151 -140 -144 0
-551 -152 -140 -143 0
-551 -152 -140 -144 0
-551 -153 -140 -144 0
-551 -151 -159 -161 0
-551 -151 -159 -162 0
-551 -151 -159 -163 0
-551 -152 -159 -162 0
-551 -152 -159 -163 0
-551 -153 -159 -163 0
-551 170 0
-551 -151 172 0
-551 -152 173 0
-551 -153 174 0
-551 -196 0
-552 134 0
-552 -163 0
-552 -124 -160 -131 0
-552 -124 -161 -132 0
-552 -124 -162 -133 0
-552 -157 0
-552 -158 0
-552 -159 0
-552 -160 -135 -142 0
-552 -160 -135 -143 0
-552 -160 -135 -144 0
-552 -161 -135 -143 0
-552 -161 -135 -144 0
-552 -162 -135 -144 0
-552 -160 -146 -152 0
-552 -160 -146 -153 0
-552 -160 -146 -154 0
-552 -161 -146 -153 0
-552 -161 -146 -154 0
-552 -162 -146 -154 0
-552 165 0
-552 -160 172 0
-552 -161 173 0
-552 -162 174 0
-552 -205 0
-553 134 0
-553 -163 0
-553 -125 -160 -131 0
-553 -125 -161 -132 0
-553 -125 -162 -133 0
-553 -158 0
-553 -159 0
-553 -160 -136 -142 0
-553 -160 -136 -143 0
-553 -160 -136 -144 0
-553 -161 -136 -143 0
-553 -161 -136 -144 0
-553 -162 -136 -144 0
-553 -160 -146 -152 0
-553 -160 -146 -153 0
-553 -160 -146 -154 0
-553 -161 -146 -153 0
-553 -161 -146 -154 0
-553 -162 -146 -154 0
-553 -160 -147 -152 0
-553 -160 -147 -153 0
-553 -160 -147 -154 0
-553 -161 -147 -153 0
-553 -161 -147 -154 0
-553 -162 -147 -154 0
-553 166 0
-553 -160 172 0
-553 -161 173 0
-553 -162 174 0
-553 -205 0
-554 134 0
-554 -163 0
-554 -126 -160 -131 0
-554 -126 -161 -132 0
-554 -126 -162 -133 0
-554 -159 0
-554 -160 -137 -142 0
-554 -160 -137 -143 0
-554 -160 -137 -144 0
-554 -161 -137 -143 0
-554 -161 -137 -144 0
-554 -162 -137 -144 0
-554 -160 -147 -152 0
-554 -160 -147 -153 0
-554 -160 -147 -154 0
-554 -161 -147 -153 0
-554 -161 -147 -154 0
-554 -162 -147 -154 0
-554 -160 -148 -152 0
-554 -160 -148 -153 0
-554 -160 -148 -154 0
-554 -161 -148 -153 0
-554 -161 -148 -154 0
-554 -162 -148 -154 0
-554 167 0
-554 -160 172 0
-554 -161 173 0
-554 -162 174 0
-554 -205 0
-555 134 0
-555 -163 0
-555 -127 -160 -131 0
-555 -127 -161 -132 0
-555 -127 -162 -133 0
-555 -156 0
-555 -160 -138 -142 0
-555 -160 -138 -143 0
-555 -160 -138 -144 0
-555 -161 -138 -143 0
-555 -161 -138 -144 0
-555 -162 -138 -144 0
-555 -160 -148 -152 0
-555 -160 -148 -153 0
-555 -160 -148 -154 0
-555 -161 -148 -153 0
-555 -161 -148 -154 0
-555 -162 -148 -154 0
-555 -160 -149 -152 0
-555 -160 -149 -153 0
-555 -160 -149 -154 0
-555 -161 -149 -153 0
-555 -161 -149 -154 0
-555 -162 -149 -154 0
-555 168 0
-555 -160 172 0
-555 -161 173 0
-555 -162 174 0
-555 -205 0
-556 134 0
-556 -163 0
-556 -128 -160 -131 0
-556 -128 -161 -132 0
-556 -128 -162 -133 0
-556 -156 0
-556 -157 0
-556 -160 -139 -142 0
-556 -160 -139 -143 0
-556 -160 -139 -144 0
-556 -161 -139 -143 0
-556 -161 -139 -144 0
-556 -162 -139 -144 0
-556 -160 -149 -152 0
-556 -160 -149 -153 0
-556 -160 -149 -154 0
-556 -161 -149 -153 0
-556 -161 -149 -154 0
-556 -162 -149 -154 0
-556 -160 -150 -152 0
-556 -160 -150 -153 0
-556 -160 -150 -154 0
-556 -161 -150 -153 0
-556 -161 -150 -154 0
-556 -162 -150 -154 0
-556 169 0
-556 -160 172 0
-556 -161 173 0
-556 -162 174 0
-556 -205 0
-557 134 0
-557 -163 0
-557 -129 -160 -131 0
-557 -129 -161 -132 0
-557 -129 -162 -133 0
-557 -156 0
-557 -157 0
-557 -158 0
-557 -160 -140 -142 0
-557 -160 -140 -143 0
-557 -160 -140 -144 0
-557 -161 -140 -143 0
-557 -161 -140 -144 0
-557 -162 -140 -144 0
-557 -160 -150 -152 0
-557 -160 -150 -153 0
-557 -160 -150 -154 0
-557 -161 -150 -153 0
-557 -161 -150 -154 0
-557 -162 -150 -154 0
-557 170 0
-557 -160 172 0
-557 -161 173 0
-557 -162 174 0
-557 -205 0
-558 134 0
-558 -124 -130 0
-558 -135 -141 0
-558 -135 -142 0
-558 -135 -143 0
-558 -135 -144 0
-558 -146 -151 0
-558 -146 -152 0
-558 -146 -153 0
-558 -146 -154 0
-558 -156 -160 0
-558 -156 -161 0
-558 -156 -162 0
-558 -156 -163 0
-558 165 0
-558 171 0
-559 134 0
-559 -125 -130 0
-559 -136 -141 0
-559 -136 -142 0
-559 -136 -143 0
-559 -136 -144 0
-559 -146 -151 0
-559 -146 -152 0
-559 -146 -153 0
-559 -146 -154 0
-559 -147 -151 0
-559 -147 -152 0
-559 -147 -153 0
-559 -147 -154 0
-559 -156 -160 0
-559 -156 -161 0
-559 -156 -162 0
-559 -156 -163 0
-559 -157 -160 0
-559 -157 -161 0
-559 -157 -162 0
-559 -157 -163 0
-559 166 0
-559 171 0
-560 134 0
-560 -126 -130 0
-560 -137 -141 0
-560 -137 -142 0
-560 -137 -143 0
-560 -137 -144 0
-560 -147 -151 0
-560 -147 -152 0
-560 -147 -153 0
-560 -147 -154 0
-560 -148 -151 0
-560 -148 -152 0
-560 -148 -153 0
-560 -148 -154 0
-560 -156 -160 0
-560 -156 -161 0
-560 -156 -162 0
-560 -156 -163 0
-560 -157 -160 0
-560 -157 -161 0
-560 -157 -162 0
-560 -157 -163 0
-560 -158 -160 0
-560 -158 -161 0
-560 -158 -162 0
-560 -158 -163 0
-560 167 0
-560 171 0
-561 134 0
-561 -127 -130 0
-561 -138 -141 0
-561 -138 -142 0
-561 -138 -143 0
-561 -138 -144 0
-561 -148 -151 0
-561 -148 -152 0
-561 -148 -153 0
-561 -148 -154 0
-561 -149 -151 0
-561 -149 -152 0
-561 -149 -153 0
-561 -149 -154 0
-561 -157 -160 0
-561 -157 -161 0
-561 -157 -162 0
-561 -157 -163 0
-561 -158 -160 0
-561 -158 -161 0
-561 -158 -162 0
-561 -158 -163 0
-561 -159 -160 0
-561 -159 -161 0
-561 -159 -162 0
-561 -159 -163 0
-561 168 0
-561 171 0
-562 134 0
-562 -128 -130 0
-562 -139 -141 0
-562 -139 -142 0
-562 -139 -143 0
-562 -139 -144 0
-562 -149 -151 0
-562 -149 -152 0
-562 -149 -153 0
-562 -149 -154 0
-562 -150 -151 0
-562 -150 -152 0
-562 -150 -153 0
-562 -150 -154 0
-562 -158 -160 0
-562 -158 -161 0
-562 -158 -162 0
-562 -158 -163 0
-562 -159 -160 0
-562 -159 -161 0
-562 -159 -162 0
-562 -159 -163 0
-562 169 0
-562 171 0
-563 134 0
-563 -129 -130 0
-563 -140 -141 0
-563 -140 -142 0
-563 -140 -143 0
-563 -140 -144 0
-563 -150 -151 0
-563 -150 -152 0
-563 -150 -153 0
-563 -150 -154 0
-563 -159 -160 0
-563 -159 -161 0
-563 -159 -162 0
-563 -159 -163 0
-563 170 0
-563 171 0
-564 145 0
-564 -133 0
-564 -135 -130 -142 0
-564 -135 -131 -143 0
-564 -135 -132 -144 0
-564 -125 0
-564 -126 0
-564 -127 0
-564 -128 0
-564 -129 0
-564 -130 -146 -152 0
-564 -130 -146 -153 0
-564 -130 -146 -154 0
-564 -131 -146 -153 0
-564 -131 -146 -154 0
-564 -132 -146 -154 0
-564 -130 -156 -161 0
-564 -130 -156 -162 0
-564 -130 -156 -163 0
-564 -131 -156 -162 0
-564 -131 -156 -163 0
-564 -132 -156 -163 0
-564 176 0
-564 -130 183 0
-564 -131 184 0
-564 -132 185 0
-564 -175 0
-565 145 0
-565 -133 0
-565 -136 -130 -142 0
-565 -136 -131 -143 0
-565 -136 -132 -144 0
-565 -124 0
-565 -126 0
-565 -127 0
-565 -128 0
-565 -129 0
-565 -130 -146 -152 0
-565 -130 -146 -153 0
-565 -130 -146 -154 0
-565 -131 -146 -153 0
-565 -131 -146 -154 0
-565 -132 -146 -154 0
-565 -130 -147 -152 0
-565 -130 -147 -153 0
-565 -130 -147 -154 0
-565 -131 -147 -153 0
-565 -131 -147 -154 0
-565 -132 -147 -154 0
-565 -130 -156 -161 0
-565 -130 -156 -162 0
-565 -130 -156 -163 0
-565 -131 -156 -162 0
-565 -131 -156 -163 0
-565 -132 -156 -163 0
-565 -130 -157 -161 0
-565 -130 -157 -162 0
-565 -130 -157 -163 0
-565 -131 -157 -162 0
-565 -131 -157 -163 0
-565 -132 -157 -163 0
-565 177 0
-565 -130 183 0
-565 -131 184 0
-565 -132 185 0
-565 -175 0
-566 145 0
-566 -133 0
-566 -137 -130 -142 0
-566 -137 -131 -143 0
-566 -137 -132 -144 0
-566 -124 0
-566 -125 0
-566 -127 0
-566 -128 0
-566 -129 0
-566 -130 -147 -152 0
-566 -130 -147 -153 0
-566 -130 -147 -154 0
-566 -131 -147 -153 0
-566 -131 -147 -154 0
-566 -132 -147 -154 0
-566 -130 -148 -152 0
-566 -130 -148 -153 0
-566 -130 -148 -154 0
-566 -131 -148 -153 0
-566 -131 -148 -154 0
-566 -132 -148 -154 0
-566 -130 -156 -161 0
-566 -130 -156 -162 0
-566 -130 -156 -163 0
-566 -131 -156 -162 0
-566 -131 -156 -163 0
-566 -132 -156 -163 0
-566 -130 -157 -161 0
-566 -130 -157 -162 0
-566 -130 -157 -163 0
-566 -131 -157 -162 0
-566 -131 -157 -163 0
-566 -132 -157 -163 0
-566 -130 -158 -161 0
-566 -130 -158 -162 0
-566 -130 -158 -163 0
-566 -131 -158 -162 0
-566 -131 -158 -163 0
-566 -132 -158 -163 0
-566 178 0
-566 -130 183 0
-566 -131 184 0
-566 -132 185 0
-566 -175 0
-567 145 0
-567 -133 0
-567 -138 -130 -142 0
-567 -138 -131 -143 0
-567 -138 -132 -144 0
-567 -124 0
-567 -125 0
-567 -126 0
-567 -128 0
-567 -129 0
-567 -130 -148 -152 0
-567 -130 -148 -153 0
-567 -130 -148 -154 0
-567 -131 -148 -153 0
-567 -131 -148 -154 0
-567 -132 -148 -154 0
-567 -130 -149 -152 0
-567 -130 -149 -153 0
-567 -130 -149 -154 0
-567 -131 -149 -153 0
-567 -131 -149 -154 0
-567 -132 -149 -154 0
-567 -130 -157 -161 0
-567 -130 -157 -162 0
-567 -130 -157 -163 0
-567 -131 -157 -162 0
-567 -131 -157 -163 0
-567 -132 -157 -163 0
-567 -130 -158 -161 0
-567 -130 -158 -162 0
-567 -130 -158 -163 0
-567 -131 -158 -162 0
-567 -131 -158 -163 0
-567 -132 -158 -163 0
-567 -130 -159 -161 0
-567 -130 -159 -162 0
-567 -130 -159 -163 0
-567 -131 -159 -162 0
-567 -131 -159 -163 0
-567 -132 -159 -163 0
-567 179 0
-567 -130 183 0
-567 -131 184 0
-567 -132 185 0
-567 -175 0
-568 145 0
-568 -133 0
-568 -139 -130 -142 0
-568 -139 -131 -143 0
-568 -139 -132 -144 0
-568 -124 0
-568 -125 0
-568 -126 0
-568 -127 0
-568 -129 0
-568 -130 -149 -152 0
-568 -130 -149 -153 0
-568 -130 -149 -154 0
-568 -131 -149 -153 0
-568 -131 -149 -154 0
-568 -132 -149 -154 0
-568 -130 -150 -152 0
-568 -130 -150 -153 0
-568 -130 -150 -154 0
-568 -131 -150 -153 0
-568 -131 -150 -154 0
-568 -132 -150 -154 0
-568 -130 -158 -161 0
-568 -130 -158 -162 0
-568 -130 -158 -163 0
-568 -131 -158 -162 0
-568 -131 -158 -163 0
-568 -132 -158 -163 0
-568 -130 -159 -161 0
-568 -130 -159 -162 0
-568 -130 -159 -163 0
-568 -131 -159 -162 0
-568 -131 -159 -163 0
-568 -132 -159 -163 0
-568 180 0
-568 -130 183 0
-568 -131 184 0
-568 -132 185 0
-568 -175 0
-569 145 0
-569 -133 0
-569 -140 -130 -142 0
-569 -140 -131 -143 0
-569 -140 -132 -144 0
-569 -124 0
-569 -125 0
-569 -126 0
-569 -127 0
-569 -128 0
-569 -130 -150 -152 0
-569 -130 -150 -153 0
-569 -130 -150 -154 0
-569 -131 -150 -153 0
-569 -131 -150 -154 0
-569 -132 -150 -154 0
-569 -130 -159 -161 0
-569 -130 -159 -162 0
-569 -130 -159 -163 0
-569 -131 -159 -162 0
-569 -131 -159 -163 0
-569 -132 -159 -163 0
-569 181 0
-569 -130 183 0
-569 -131 184 0
-569 -132 185 0
-569 -175 0
-570 145 0
-570 -154 0
-570 -135 -151 -142 0
-570 -135 -152 -143 0
-570 -135 -153 -144 0
-570 -147 0
-570 -148 0
-570 -149 0
-570 -150 0
-570 -151 -124 -131 0
-570 -151 -124 -132 0
-570 -151 -124 -133 0
-570 -152 -124 -132 0
-570 -152 -124 -133 0
-570 -153 -124 -133 0
-570 -151 -156 -161 0
-570 -151 -156 -162 0
-570 -151 -156 -163 0
-570 -152 -156 -162 0
-570 -152 -156 -163 0
-570 -153 -156 -163 0
-570 176 0
-570 -151 183 0
-570 -152 184 0
-570 -153 185 0
-570 -196 0
-571 145 0
-571 -154 0
-571 -136 -151 -142 0
-571 -136 -152 -143 0
-571 -136 -153 -144 0
-571 -148 0
-571 -149 0
-571 -150 0
-571 -151 -125 -131 0
-571 -151 -125 -132 0
-571 -151 -125 -133 0
-571 -152 -125 -132 0
-571 -152 -125 -133 0
-571 -153 -125 -133 0
-571 -151 -156 -161 0
-571 -151 -156 -162 0
-571 -151 -156 -163 0
-571 -152 -156 -162 0
-571 -152 -156 -163 0
-571 -153 -156 -163 0
-571 -151 -157 -161 0
-571 -151 -157 -162 0
-571 -151 -157 -163 0
-571 -152 -157 -162 0
-571 -152 -157 -163 0
-571 -153 -157 -163 0
-571 177 0
-571 -151 183 0
-571 -152 184 0
-571 -153 185 0
-571 -196 0
-572 145 0
-572 -154 0
-572 -137 -151 -142 0
-572 -137 -152 -143 0
-572 -137 -153 -144 0
-572 -146 0
-572 -149 0
-572 -150 0
-572 -151 -126 -131 0
-572 -151 -126 -132 0
-572 -151 -126 -133 0
-572 -152 -126 -132 0
-572 -152 -126 -133 0
-572 -153 -126 -133 0
-572 -151 -156 -161 0
-572 -151 -156 -162 0
-572 -151 -156 -163 0
-572 -152 -156 -162 0
-572 -152 -156 -163 0
-572 -153 -156 -163 0
-572 -151 -157 -161 0
-572 -151 -157 -162 0
-572 -151 -157 -163 0
-572 -152 -157 -162 0
-572 -152 -157 -163 0
-572 -153 -157 -163 0
-572 -151 -158 -161 0
-572 -151 -158 -162 0
-572 -151 -158 -163 0
-572 -152 -158 -162 0
-572 -152 -158 -163 0
-572 -153 -158 -163 0
-572 178 0
-572 -151 183 0
-572 -152 184 0
-572 -153 185 0
-572 -196 0
-573 145 0
-573 -154 0
-573 -138 -151 -142 0
-573 -138 -152 -143 0
-573 -138 -153 -144 0
-573 -146 0
-573 -147 0
-573 -150 0
-573 -151 -127 -131 0
-573 -151 -127 -132 0
-573 -151 -127 -133 0
-573 -152 -127 -132 0
-573 -152 -127 -133 0
-573 -153 -127 -133 0
-573 -151 -157 -161 0
-573 -151 -157 -162 0
-573 -151 -157 -163 0
-573 -152 -157 -162 0
-573 -152 -157 -163 0
-573 -153 -157 -163 0
-573 -151 -158 -161 0
-573 -151 -158 -162 0
-573 -151 -158 -163 0
-573 -152 -158 -162 0
-573 -152 -158 -163 0
-573 -153 -158 -163 0
-573 -151 -159 -161 0
-573 -151 -159 -162 0
-573 -151 -159 -163 0
-573 -152 -159 -162 0
-573 -152 -159 -163 0
-573 -153 -159 -163 0
-573 179 0
-573 -151 183 0
-573 -152 184 0
-573 -153 185 0
-573 -196 0
-574 145 0
-574 -154 0
-574 -139 -151 -142 0
-574 -139 -152 -143 0
-574 -139 -153 -144 0
-574 -146 0
-574 -147 0
-574 -148 0
-574 -151 -128 -131 0
-574 -151 -128 -132 0
-574 -151 -128 -133 0
-574 -152 -128 -132 0
-574 -152 -128 -133 0
-574 -153 -128 -133 0
-574 -151 -158 -161 0
-574 -151 -158 -162 0
-574 -151 -158 -163 0
-574 -152 -158 -162 0
-574 -152 -158 -163 0
-574 -153 -158 -163 0
-574 -151 -159 -161 0
-574 -151 -159 -162 0
-574 -151 -159 -163 0
-574 -152 -159 -162 0
-574 -152 -159 -163 0
-574 -153 -159 -163 0
-574 180 0
-574 -151 183 0
-574 -152 184 0
-574 -153 185 0
-574 -196 0
-575 145 0
-575 -154 0
-575 -140 -151 -142 0
-575 -140 -152 -143 0
-575 -140 -153 -144 0
-575 -146 0
-575 -147 0
-575 -148 0
-575 -149 0
-575 -151 -129 -131 0
-575 -151 -129 -132 0
-575 -151 -129 -133 0
-575 -152 -129 -132 0
-575 -152 -129 -133 0
-575 -153 -129 -133 0
-575 -151 -159 -161 0
-575 -151 -159 -162 0
-575 -151 -159 -163 0
-575 -152 -159 -162 0
-575 -152 -159 -163 0
-575 -153 -159 -163 0
-575 181 0
-575 -151 183 0
-575 -152 184 0
-575 -153 185 0
-575 -196 0
-576 145 0
-576 -163 0
-576 -135 -160 -142 0
-576 -135 -161 -143 0
-576 -135 -162 -144 0
-576 -157 0
-576 -158 0
-576 -159 0
-576 -160 -124 -131 0
-576 -160 -124 -132 0
-576 -160 -124 -133 0
-576 -161 -124 -132 0
-576 -161 -124 -133 0
-576 -162 -124 -133 0
-576 -160 -146 -152 0
-576 -160 -146 -153 0
-576 -160 -146 -154 0
-576 -161 -146 -153 0
-576 -161 -146 -154 0
-576 -162 -146 -154 0
-576 176 0
-576 -160 183 0
-576 -161 184 0
-576 -162 185 0
-576 -205 0
-577 145 0
-577 -163 0
-577 -136 -160 -142 0
-577 -136 -161 -143 0
-577 -136 -162 -144 0
-577 -158 0
-577 -159 0
-577 -160 -125 -131 0
-577 -160 -125 -132 0
-577 -160 -125 -133 0
-577 -161 -125 -132 0
-577 -161 -125 -133 0
-577 -162 -125 -133 0
-577 -160 -146 -152 0
-577 -160 -146 -153 0
-577 -160 -146 -154 0
-577 -161 -146 -153 0
-577 -161 -146 -154 0
-577 -162 -146 -154 0
-577 -160 -147 -152 0
-577 -160 -147 -153 0
-577 -160 -147 -154 0
-577 -161 -147 -153 0
-577 -161 -147 -154 0
-577 -162 -147 -154 0
-577 177 0
-577 -160 183 0
-577 -161 184 0
-577 -162 185 0
-577 -205 0
-578 145 0
-578 -163 0
-578 -137 -160 -142 0
-578 -137 -161 -143 0
-578 -137 -162 -144 0
-578 -159 0
-578 -160 -126 -131 0
-578 -160 -126 -132 0
-578 -160 -126 -133 0
-578 -161 -126 -132 0
-578 -161 -126 -133 0
-578 -162 -126 -133 0
-578 -160 -147 -152 0
-578 -160 -147 -153 0
-578 -160 -147 -154 0
-578 -161 -147 -153 0
-578 -161 -147 -154 0
-578 -162 -147 -154 0
-578 -160 -148 -152 0
-578 -160 -148 -153 0
-578 -160 -148 -154 0
-578 -161 -148 -153 0
-578 -161 -148 -154 0
-578 -162 -148 -154 0
-578 178 0
-578 -160 183 0
-578 -161 184 0
-578 -162 185 0
-578 -205 0
-579 145 0
-579 -163 0
-579 -138 -160 -142 0
-579 -138 -161 -143 0
-579 -138 -162 -144 0
-579 -156 0
-579 -160 -127 -131 0
-579 -160 -127 -132 0
-579 -160 -127 -133 0
-579 -161 -127 -132 0
-579 -161 -127 -133 0
-579 -162 -127 -133 0
-579 -160 -148 -152 0
-579 -160 -148 -153 0
-579 -160 -148 -154 0
-579 -161 -148 -153 0
-579 -161 -148 -154 0
-579 -162 -148 -154 0
-579 -160 -149 -152 0
-579 -160 -149 -153 0
-579 -160 -149 -154 0
-579 -161 -149 -153 0
-579 -161 -149 -154 0
-579 -162 -149 -154 0
-579 179 0
-579 -160 183 0
-579 -161 184 0
-579 -162 185 0
-579 -205 0
-580 145 0
-580 -163 0
-580 -139 -160 -142 0
-580 -139 -161 -143 0
-580 -139 -162 -144 0
-580 -156 0
-580 -157 0
-580 -160 -128 -131 0
-580 -160 -128 -132 0
-580 -160 -128 -133 0
-580 -161 -128 -132 0
-580 -161 -128 -133 0
-580 -162 -128 -133 0
-580 -160 -149 -152 0
-580 -160 -149 -153 0
-580 -160 -149 -154 0
-580 -161 -149 -153 0
-580 -161 -149 -154 0
-580 -162 -149 -154 0
-580 -160 -150 -152 0
-580 -160 -150 -153 0
-580 -160 -150 -154 0
-580 -161 -150 -153 0
-580 -161 -150 -154 0
-580 -162 -150 -154 0
-580 180 0
-580 -160 183 0
-580 -161 184 0
-580 -162 185 0
-580 -205 0
-581 145 0
-581 -163 0
-581 -140 -160 -142 0
-581 -140 -161 -143 0
-581 -140 -162 -144 0
-581 -156 0
-581 -157 0
-581 -158 0
-581 -160 -129 -131 0
-581 -160 -129 -132 0
-581 -160 -129 -133 0
-581 -161 -129 -132 0
-581 -161 -129 -133 0
-581 -162 -129 -133 0
-581 -160 -150 -152 0
-581 -160 -150 -153 0
-581 -160 -150 -154 0
-581 -161 -150 -153 0
-581 -161 -150 -154 0
-581 -162 -150 -154 0
-581 181 0
-581 -160 183 0
-581 -161 184 0
-581 -162 185 0
-581 -205 0
-582 145 0
-582 -135 -141 0
-582 -124 -130 0
-582 -124 -131 0
-582 -124 -132 0
-582 -124 -133 0
-582 -146 -151 0
-582 -146 -152 0
-582 -146 -153 0
-582 -146 -154 0
-582 -156 -160 0
-582 -156 -161 0
-582 -156 -162 0
-582 -156 -163 0
-582 176 0
-582 182 0
-583 145 0
-583 -136 -141 0
-583 -125 -130 0
-583 -125 -131 0
-583 -125 -132 0
-583 -125 -133 0
-583 -146 -151 0
-583 -146 -152 0
-583 -146 -153 0
-583 -146 -154 0
-583 -147 -151 0
-583 -147 -152 0
-583 -147 -153 0
-583 -147 -154 0
-583 -156 -160 0
-583 -156 -161 0
-583 -156 -162 0
-583 -156 -163 0
-583 -157 -160 0
-583 -157 -161 0
-583 -157 -162 0
-583 -157 -163 0
-583 177 0
-583 182 0
-584 145 0
-584 -137 -141 0
-584 -126 -130 0
-584 -126 -131 0
-584 -126 -132 0
-584 -126 -133 0
-584 -147 -151 0
-584 -147 -152 0
-584 -147 -153 0
-584 -147 -154 0
-584 -148 -151 0
-584 -148 -152 0
-584 -148 -153 0
-584 -148 -154 0
-584 -156 -160 0
-584 -156 -161 0
-584 -156 -162 0
-584 -156 -163 0
-584 -157 -160 0
-584 -157 -161 0
-584 -157 -162 0
-584 -157 -163 0
-584 -158 -160 0
-584 -158 -161 0
-584 -158 -162 0
-584 -158 -163 0
-584 178 0
-584 182 0
-585 145 0
-585 -138 -141 0
-585 -127 -130 0
-585 -127 -131 0
-585 -127 -132 0
-585 -127 -133 0
-585 -148 -151 0
-585 -148 -152 0
-585 -148 -153 0
-585 -148 -154 0
-585 -149 -151 0
-585 -149 -152 0
-585 -149 -153 0
-585 -149 -154 0
-585 -157 -160 0
-585 -157 -161 0
-585 -157 -162 0
-585 -157 -163 0
-585 -158 -160 0
-585 -158 -161 0
-585 -158 -162 0
-585 -158 -163 0
-585 -159 -160 0
-585 -159 -161 0
-585 -159 -162 0
-585 -159 -163 0
-585 179 0
-585 182 0
-586 145 0
-586 -139 -141 0
-586 -128 -130 0
-586 -128 -131 0
-586 -128 -132 0
-586 -128 -133 0
-586 -149 -151 0
-586 -149 -152 0
-586 -149 -153 0
-586 -149 -154 0
-586 -150 -151 0
-586 -150 -152 0
-586 -150 -153 0
-586 -150 -154 0
-586 -158 -160 0
-586 -158 -161 0
-586 -158 -162 0
-586 -158 -163 0
-586 -159 -160 0
-586 -159 -161 0
-586 -159 -162 0
-586 -159 -163 0
-586 180 0
-586 182 0
-587 145 0
-587 -140 -141 0
-587 -129 -130 0
-587 -129 -131 0
-587 -129 -132 0
-587 -129 -133 0
-587 -150 -151 0
-587 -150 -152 0
-587 -150 -153 0
-587 -150 -154 0
-587 -159 -160 0
-587 -159 -161 0
-587 -159 -162 0
-587 -159 -163 0
-587 181 0
-587 182 0
-588 155 0
-588 -133 0
-588 -146 -130 -152 0
-588 -146 -131 -153 0
-588 -146 -132 -154 0
-588 -126 0
-588 -127 0
-588 -128 0
-588 -129 0
-588 -130 -135 -142 0
-588 -130 -135 -143 0
-588 -130 -135 -144 0
-588 -131 -135 -143 0
-588 -131 -135 -144 0
-588 -132 -135 -144 0
-588 -130 -136 -142 0
-588 -130 -136 -143 0
-588 -130 -136 -144 0
-588 -131 -136 -143 0
-588 -131 -136 -144 0
-588 -132 -136 -144 0
-588 -130 -156 -161 0
-588 -130 -156 -162 0
-588 -130 -156 -163 0
-588 -131 -156 -162 0
-588 -131 -156 -163 0
-588 -132 -156 -163 0
-588 -130 -157 -161 0
-588 -130 -157 -162 0
-588 -130 -157 -163 0
-588 -131 -157 -162 0
-588 -131 -157 -163 0
-588 -132 -157 -163 0
-588 187 0
-588 -130 193 0
-588 -131 194 0
-588 -132 195 0
-588 -175 0
-589 155 0
-589 -133 0
-589 -147 -130 -152 0
-589 -147 -131 -153 0
-589 -147 -132 -154 0
-589 -124 0
-589 -127 0
-589 -128 0
-589 -129 0
-589 -130 -136 -142 0
-589 -130 -136 -143 0
-589 -130 -136 -144 0
-589 -131 -136 -143 0
-589 -131 -136 -144 0
-589 -132 -136 -144 0
-589 -130 -137 -142 0
-589 -130 -137 -143 0
-589 -130 -137 -144 0
-589 -131 -137 -143 0
-589 -131 -137 -144 0
-589 -132 -137 -144 0
-589 -130 -156 -161 0
-589 -130 -156 -162 0
-589 -130 -156 -163 0
-589 -131 -156 -162 0
-589 -131 -156 -163 0
-589 -132 -156 -163 0
-589 -130 -157 -161 0
-589 -130 -157 -162 0
-589 -130 -157 -163 0
-589 -131 -157 -162 0
-589 -131 -157 -163 0
-589 -132 -157 -163 0
-589 -130 -158 -161 0
-589 -130 -158 -162 0
-589 -130 -158 -163 0
-589 -131 -158 -162 0
-589 -131 -158 -163 0
-589 -132 -158 -163 0
-589 188 0
-589 -130 193 0
-589 -131 194 0
-589 -132 195 0
-589 -175 0
-590 155 0
-590 -133 0
-590 -148 -130 -152 0
-590 -148 -131 -153 0
-590 -148 -132 -154 0
-590 -124 0
-590 -125 0
-590 -128 0
-590 -129 0
-590 -130 -137 -142 0
-590 -130 -137 -143 0
-590 -130 -137 -144 0
-590 -131 -137 -143 0
-590 -131 -137 -144 0
-590 -132 -137 -144 0
-590 -130 -138 -142 0
-590 -130 -138 -143 0
-590 -130 -138 -144 0
-590 -131 -138 -143 0
-590 -131 -138 -144 0
-590 -132 -138 -144 0
-590 -130 -156 -161 0
-590 -130 -156 -162 0
-590 -130 -156 -163 0
-590 -131 -156 -162 0
-590 -131 -156 -163 0
-590 -132 -156 -163 0
-590 -130 -157 -161 0
-590 -130 -157 -162 0
-590 -130 -157 -163 0
-590 -131 -157 -162 0
-590 -131 -157 -163 0
-590 -132 -157 -163 0
-590 -130 -158 -161 0
-590 -130 -158 -162 0
-590 -130 -158 -163 0
-590 -131 -158 -162 0
-590 -131 -158 -163 0
-590 -132 -158 -163 0
-590 -130 -159 -161 0
-590 -130 -159 -162 0
-590 -130 -159 -163 0
-590 -131 -159 -162 0
-590 -131 -159 -163 0
-590 -132 -159 -163 0
-590 189 0
-590 -130 193 0
-590 -131 194 0
-590 -132 195 0
-590 -175 0
-591 155 0
-591 -133 0
-591 -149 -130 -152 0
-591 -149 -131 -153 0
-591 -149 -132 -154 0
-591 -124 0
-591 -125 0
-591 -126 0
-591 -129 0
-591 -130 -138 -142 0
-591 -130 -138 -143 0
-591 -130 -138 -144 0
-591 -131 -138 -143 0
-591 -131 -138 -144 0
-591 -132 -138 -144 0
-591 -130 -139 -142 0
-591 -130 -139 -143 0
-591 -130 -139 -144 0
-591 -131 -139 -143 0
-591 -131 -139 -144 0
-591 -132 -139 -144 0
-591 -130 -157 -161 0
-591 -130 -157 -162 0
-591 -130 -157 -163 0
-591 -131 -157 -162 0
-591 -131 -157 -163 0
-591 -132 -157 -163 0
-591 -130 -158 -161 0
-591 -130 -158 -162 0
-591 -130 -158 -163 0
-591 -131 -158 -162 0
-591 -131 -158 -163 0
-591 -132 -158 -163 0
-591 -130 -159 -161 0
-591 -130 -159 -162 0
-591 -130 -159 -163 0
-591 -131 -159 -162 0
-591 -131 -159 -163 0
-591 -132 -159 -163 0
-591 190 0
-591 -130 193 0
-591 -131 194 0
-591 -132 195 0
-591 -175 0
-592 155 0
-592 -133 0
-592 -150 -130 -152 0
-592 -150 -131 -153 0
-592 -150 -132 -154 0
-592 -124 0
-592 -125 0
-592 -126 0
-592 -127 0
-592 -130 -139 -142 0
-592 -130 -139 -143 0
-592 -130 -139 -144 0
-592 -131 -139 -143 0
-592 -131 -139 -144 0
-592 -132 -139 -144 0
-592 -130 -140 -142 0
-592 -130 -140 -143 0
-592 -130 -140 -144 0
-592 -131 -140 -143 0
-592 -131 -140 -144 0
-592 -132 -140 -144 0
-592 -130 -158 -161 0
-592 -130 -158 -162 0
-592 -130 -158 -163 0
-592 -131 -158 -162 0
-592 -131 -158 -163 0
-592 -132 -158 -163 0
-592 -130 -159 -161 0
-592 -130 -159 -162 0
-592 -130 -159 -163 0
-592 -131 -159 -162 0
-592 -131 -159 -163 0
-592 -132 -159 -163 0
-592 191 0
-592 -130 193 0
-592 -131 194 0
-592 -132 195 0
-592 -175 0
-593 155 0
-593 -144 0
-593 -146 -141 -152 0
-593 -146 -142 -153 0
-593 -146 -143 -154 0
-593 -137 0
-593 -138 0
-593 -139 0
-593 -140 0
-593 -141 -124 -131 0
-593 -141 -124 -132 0
-593 -141 -124 -133 0
-593 -142 -124 -132 0
-593 -142 -124 -133 0
-593 -143 -124 -133 0
-593 -141 -125 -131 0
-593 -141 -125 -132 0
-593 -141 -125 -133 0
-593 -142 -125 -132 0
-593 -142 -125 -133 0
-593 -143 -125 -133 0
-593 -141 -156 -161 0
-593 -141 -156 -162 0
-593 -141 -156 -163 0
-593 -142 -156 -162 0
-593 -142 -156 -163 0
-593 -143 -156 -163 0
-593 -141 -157 -161 0
-593 -141 -157 -162 0
-593 -141 -157 -163 0
-593 -142 -157 -162 0
-593 -142 -157 -163 0
-593 -143 -157 -163 0
-593 187 0
-593 -141 193 0
-593 -142 194 0
-593 -143 195 0
-593 -186 0
-594 155 0
-594 -144 0
-594 -147 -141 -152 0
-594 -147 -142 -153 0
-594 -147 -143 -154 0
-594 -135 0
-594 -138 0
-594 -139 0
-594 -140 0
-594 -141 -125 -131 0
-594 -141 -125 -132 0
-594 -141 -125 -133 0
-594 -142 -125 -132 0
-594 -142 -125 -133 0
-594 -143 -125 -133 0
-594 -141 -126 -131 0
-594 -141 -126 -132 0
-594 -141 -126 -133 0
-594 -142 -126 -132 0
-594 -142 -126 -133 0
-594 -143 -126 -133 0
-594 -141 -156 -161 0
-594 -141 -156 -162 0
-594 -141 -156 -163 0
-594 -142 -156 -162 0
-594 -142 -156 -163 0
-594 -143 -156 -163 0
-594 -141 -157 -161 0
-594 -141 -157 -162 0
-594 -141 -157 -163 0
-594 -142 -157 -162 0
-594 -142 -157 -163 0
-594 -143 -157 -163 0
-594 -141 -158 -161 0
-594 -141 -158 -162 0
-594 -141 -158 -163 0
-594 -142 -158 -162 0
-594 -142 -158 -163 0
-594 -143 -158 -163 0
-594 188 0
-594 -141 193 0
-594 -142 194 0
-594 -143 195 0
-594 -186 0
-595 155 0
-595 -144 0
-595 -148 -141 -152 0
-595 -148 -142 -153 0
-595 -148 -143 -154 0
-595 -135 0
-595 -136 0
-595 -139 0
-595 -140 0
-595 -141 -126 -131 0
-595 -141 -126 -132 0
-595 -141 -126 -133 0
-595 -142 -126 -132 0
-595 -142 -126 -133 0
-595 -143 -126 -133 0
-595 -141 -127 -131 0
-595 -141 -127 -132 0
-595 -141 -127 -133 0
-595 -142 -127 -132 0
-595 -142 -127 -133 0
-595 -143 -127 -133 0
-595 -141 -156 -161 0
-595 -141 -156 -162 0
-595 -141 -156 -163 0
-595 -142 -156 -162 0
-595 -142 -156 -163 0
-595 -143 -156 -163 0
-595 -141 -157 -161 0
-595 -141 -157 -162 0
-595 -141 -157 -163 0
-595 -142 -157 -162 0
-595 -142 -157 -163 0
-595 -143 -157 -163 0
-595 -141 -158 -161 0
-595 -141 -158 -162 0
-595 -141 -158 -163 0
-595 -142 -158 -162 0
-595 -142 -158 -163 0
-595 -143 -158 -163 0
-595 -141 -159 -161 0
-595 -141 -159 -162 0
-595 -141 -159 -163 0
-595 -142 -159 -162 0
-595 -142 -159 -163 0
-595 -143 -159 -163 0
-595 189 0
-595 -141 193 0
-595 -142 194 0
-595 -143 195 0
-595 -186 0
-596 155 0
-596 -144 0
-596 -149 -141 -152 0
-596 -149 -142 -153 0
-596 -149 -143 -154 0
-596 -135 0
-596 -136 0
-596 -137 0
-596 -140 0
-596 -141 -127 -131 0
-596 -141 -127 -132 0
-596 -141 -127 -133 0
-596 -142 -127 -132 0
-596 -142 -127 -133 0
-596 -143 -127 -133 0
-596 -141 -128 -131 0
-596 -141 -128 -132 0
-596 -141 -128 -133 0
-596 -142 -128 -132 0
-596 -142 -128 -133 0
-596 -143 -128 -133 0
-596 -141 -157 -161 0
-596 -141 -157 -162 0
-596 -141 -157 -163 0
-596 -142 -157 -162 0
-596 -142 -157 -163 0
-596 -143 -157 -163 0
-596 -141 -158 -161 0
-596 -141 -158 -162 0
-596 -141 -158 -163 0
-596 -142 -158 -162 0
-596 -142 -158 -163 0
-596 -143 -158 -163 0
-596 -141 -159 -161 0
-596 -141 -159 -162 0
-596 -141 -159 -163 0
-596 -142 -159 -162 0
-596 -142 -159 -163 0
-596 -143 -159 -163 0
-596 190 0
-596 -141 193 0
-596 -142 194 0
-596 -143 195 0
-596 -186 0
-597 155 0
-597 -144 0
-597 -150 -141 -152 0
-597 -150 -142 -153 0
-597 -150 -143 -154 0
-597 -135 0
-597 -136 0
-597 -137 0
-597 -138 0
-597 -141 -128 -131 0
-597 -141 -128 -132 0
-597 -141 -128 -133 0
-597 -142 -128 -132 0
-597 -142 -128 -133 0
-597 -143 -128 -133 0
-597 -141 -129 -131 0
-597 -141 -129 -132 0
-597 -141 -129 -133 0
-597 -142 -129 -132 0
-597 -142 -129 -133 0
-597 -143 -129 -133 0
-597 -141 -158 -161 0
-597 -141 -158 -162 0
-597 -141 -158 -163 0
-597 -142 -158 -162 0
-597 -142 -158 -163 0
-597 -143 -158 -163 0
-597 -141 -159 -161 0
-597 -141 -159 -162 0
-597 -141 -159 -163 0
-597 -142 -159 -162 0
-597 -142 -159 -163 0
-597 -143 -159 -163 0
-597 191 0
-597 -141 193 0
-597 -142 194 0
-597 -143 195 0
-597 -186 0
-598 155 0
-598 -163 0
-598 -146 -160 -152 0
-598 -146 -161 -153 0
-598 -146 -162 -154 0
-598 -158 0
-598 -159 0
-598 -160 -124 -131 0
-598 -160 -124 -132 0
-598 -160 -124 -133 0
-598 -161 -124 -132 0
-598 -161 -124 -133 0
-598 -162 -124 -133 0
-598 -160 -125 -131 0
-598 -160 -125 -132 0
-598 -160 -125 -133 0
-598 -161 -125 -132 0
-598 -161 -125 -133 0
-598 -162 -125 -133 0
-598 -160 -135 -142 0
-598 -160 -135 -143 0
-598 -160 -135 -144 0
-598 -161 -135 -143 0
-598 -161 -135 -144 0
-598 -162 -135 -144 0
-598 -160 -136 -142 0
-598 -160 -136 -143 0
-598 -160 -136 -144 0
-598 -161 -136 -143 0
-598 -161 -136 -144 0
-598 -162 -136 -144 0
-598 187 0
-598 -160 193 0
-598 -161 194 0
-598 -162 195 0
-598 -205 0
-599 155 0
-599 -163 0
-599 -147 -160 -152 0
-599 -147 -161 -153 0
-599 -147 -162 -154 0
-599 -159 0
-599 -160 -125 -131 0
-599 -160 -125 -132 0
-599 -160 -125 -133 0
-599 -161 -125 -132 0
-599 -161 -125 -133 0
-599 -162 -125 -133 0
-599 -160 -126 -131 0
-599 -160 -126 -132 0
-599 -160 -126 -133 0
-599 -161 -126 -132 0
-599 -161 -126 -133 0
-599 -162 -126 -133 0
-599 -160 -136 -142 0
-599 -160 -136 -143 0
-599 -160 -136 -144 0
-599 -161 -136 -143 0
-599 -161 -136 -144 0
-599 -162 -136 -144 0
-599 -160 -137 -142 0
-599 -160 -137 -143 0
-599 -160 -137 -144 0
-599 -161 -137 -143 0
-599 -161 -137 -144 0
-599 -162 -137 -144 0
-599 188 0
-599 -160 193 0
-599 -161 194 0
-599 -162 195 0
-599 -205 0
-600 155 0
-600 -163 0
-600 -148 -160 -152 0
-600 -148 -161 -153 0
-600 -148 -162 -154 0
-600 -160 -126 -131 0
-600 -160 -126 -132 0
-600 -160 -126 -133 0
-600 -161 -126 -132 0
-600 -161 -126 -133 0
-600 -162 -126 -133 0
-600 -160 -127 -131 0
-600 -160 -127 -132 0
-600 -160 -127 -133 0
-600 -161 -127 -132 0
-600 -161 -127 -133 0
-600 -162 -127 -133 0
-600 -160 -137 -142 0
-600 -160 -137 -143 0
-600 -160 -137 -144 0
-600 -161 -137 -143 0
-600 -161 -137 -144 0
-600 -162 -137 -144 0
-600 -160 -138 -142 0
-600 -160 -138 -143 0
-600 -160 -138 -144 0
-600 -161 -138 -143 0
-600 -161 -138 -144 0
-600 -162 -138 -144 0
-600 189 0
-600 -160 193 0
-600 -161 194 0
-600 -162 195 0
-600 -205 0
-601 155 0
-601 -163 0
-601 -149 -160 -152 0
-601 -149 -161 -153 0
-601 -149 -162 -154 0
-601 -156 0
-601 -160 -127 -131 0
-601 -160 -127 -132 0
-601 -160 -127 -133 0
-601 -161 -127 -132 0
-601 -161 -127 -133 0
-601 -162 -127 -133 0
-601 -160 -128 -131 0
-601 -160 -128 -132 0
-601 -160 -128 -133 0
-601 -161 -128 -132 0
-601 -161 -128 -133 0
-601 -162 -128 -133 0
-601 -160 -138 -142 0
-601 -160 -138 -143 0
-601 -160 -138 -144 0
-601 -161 -138 -143 0
-601 -161 -138 -144 0
-601 -162 -138 -144 0
-601 -160 -139 -142 0
-601 -160 -139 -143 0
-601 -160 -139 -144 0
-601 -161 -139 -143 0
-601 -161 -139 -144 0
-601 -162 -139 -144 0
-601 190 0
-601 -160 193 0
-601 -161 194 0
-601 -162 195 0
-601 -205 0
-602 155 0
-602 -163 0
-602 -150 -160 -152 0
-602 -150 -161 -153 0
-602 -150 -162 -154 0
-602 -156 0
-602 -157 0
-602 -160 -128 -131 0
-602 -160 -128 -132 0
-602 -160 -128 -133 0
-602 -161 -128 -132 0
-602 -161 -128 -133 0
-602 -162 -128 -133 0
-602 -160 -129 -131 0
-602 -160 -129 -132 0
-602 -160 -129 -133 0
-602 -161 -129 -132 0
-602 -161 -129 -133 0
-602 -162 -129 -133 0
-602 -160 -139 -142 0
-602 -160 -139 -143 0
-602 -160 -139 -144 0
-602 -161 -139 -143 0
-602 -161 -139 -144 0
-602 -162 -139 -144 0
-602 -160 -140 -142 0
-602 -160 -140 -143 0
-602 -160 -140 -144 0
-602 -161 -140 -143 0
-602 -161 -140 -144 0
-602 -162 -140 -144 0
-602 191 0
-602 -160 193 0
-602 -161 194 0
-602 -162 195 0
-602 -205 0
-603 155 0
-603 -146 -151 0
-603 -124 -130 0
-603 -124 -131 0
-603 -124 -132 0
-603 -124 -133 0
-603 -125 -130 0
-603 -125 -131 0
-603 -125 -132 0
-603 -125 -133 0
-603 -135 -141 0
-603 -135 -142 0
-603 -135 -143 0
-603 -135 -144 0
-603 -136 -141 0
-603 -136 -142 0
-603 -136 -143 0
-603 -136 -144 0
-603 -156 -160 0
-603 -156 -161 0
-603 -156 -162 0
-603 -156 -163 0
-603 -157 -160 0
-603 -157 -161 0
-603 -157 -162 0
-603 -157 -163 0
-603 187 0
-603 192 0
-604 155 0
-604 -147 -151 0
-604 -125 -130 0
-604 -125 -131 0
-604 -125 -132 0
-604 -125 -133 0
-604 -126 -130 0
-604 -126 -131 0
-604 -126 -132 0
-604 -126 -133 0
-604 -136 -141 0
-604 -136 -142 0
-604 -136 -143 0
-604 -136 -144 0
-604 -137 -141 0
-604 -137 -142 0
-604 -137 -143 0
-604 -137 -144 0
-604 -156 -160 0
-604 -156 -161 0
-604 -156 -162 0
-604 -156 -163 0
-604 -157 -160 0
-604 -157 -161 0
-604 -157 -162 0
-604 -157 -163 0
-604 -158 -160 0
-604 -158 -161 0
-604 -158 -162 0
-604 -158 -163 0
-604 188 0
-604 192 0
-605 155 0
-605 -148 -151 0
-605 -126 -130 0
-605 -126 -131 0
-605 -126 -132 0
-605 -126 -133 0
-605 -127 -130 0
-605 -127 -131 0
-605 -127 -132 0
-605 -127 -133 0
-605 -137 -141 0
-605 -137 -142 0
-605 -137 -143 0
-605 -137 -144 0
-605 -138 -141 0
-605 -138 -142 0
-605 -138 -143 0
-605 -138 -144 0
-605 -156 -160 0
-605 -156 -161 0
-605 -156 -162 0
-605 -156 -163 0
-605 -157 -160 0
-605 -157 -161 0
-605 -157 -162 0
-605 -157 -163 0
-605 -158 -160 0
-605 -158 -161 0
-605 -158 -162 0
-605 -158 -163 0
-605 -159 -160 0
-605 -159 -161 0
-605 -159 -162 0
-605 -159 -163 0
-605 189 0
-605 192 0
-606 155 0
-606 -149 -151 0
-606 -127 -130 0
-606 -127 -131 0
-606 -127 -132 0
-606 -127 -133 0
-606 -128 -130 0
-606 -128 -131 0
-606 -128 -132 0
-606 -128 -133 0
-606 -138 -141 0
-606 -138 -142 0
-606 -138 -143 0
-606 -138 -144 0
-606 -139 -141 0
-606 -139 -142 0
-606 -139 -143 0
-606 -139 -144 0
-606 -157 -160 0
-606 -157 -161 0
-606 -157 -162 0
-606 -157 -163 0
-606 -158 -160 0
-606 -158 -161 0
-606 -158 -162 0
-606 -158 -163 0
-606 -159 -160 0
-606 -159 -161 0
-606 -159 -162 0
-606 -159 -163 0
-606 190 0
-606 192 0
-607 155 0
-607 -150 -151 0
-607 -128 -130 0
-607 -128 -131 0
-607 -128 -132 0
-607 -128 -133 0
-607 -129 -130 0
-607 -129 -131 0
-607 -129 -132 0
-607 -129 -133 0
-607 -139 -141 0
-607 -139 -142 0
-607 -139 -143 0
-607 -139 -144 0
-607 -140 -141 0
-607 -140 -142 0
-607 -140 -143 0
-607 -140 -144 0
-607 -158 -160 0
-607 -158 -161 0
-607 -158 -162 0
-607 -158 -163 0
-607 -159 -160 0
-607 -159 -161 0
-607 -159 -162 0
-607 -159 -163 0
-607 191 0
-607 192 0
-608 164 0
-608 -133 0
-608 -156 -130 -161 0
-608 -156 -131 -162 0
-608 -156 -132 -163 0
-608 -127 0
-608 -128 0
-608 -129 0
-608 -130 -135 -142 0
-608 -130 -135 -143 0
-608 -130 -135 -144 0
-608 -131 -135 -143 0
-608 -131 -135 -144 0
-608 -132 -135 -144 0
-608 -130 -136 -142 0
-608 -130 -136 -143 0
-608 -130 -136 -144 0
-608 -131 -136 -143 0
-608 -131 -136 -144 0
-608 -132 -136 -144 0
-608 -130 -137 -142 0
-608 -130 -137 -143 0
-608 -130 -137 -144 0
-608 -131 -137 -143 0
-608 -131 -137 -144 0
-608 -132 -137 -144 0
-608 -130 -146 -152 0
-608 -130 -146 -153 0
-608 -130 -146 -154 0
-608 -131 -146 -153 0
-608 -131 -146 -154 0
-608 -132 -146 -154 0
-608 -130 -147 -152 0
-608 -130 -147 -153 0
-608 -130 -147 -154 0
-608 -131 -147 -153 0
-608 -131 -147 -154 0
-608 -132 -147 -154 0
-608 -130 -148 -152 0
-608 -130 -148 -153 0
-608 -130 -148 -154 0
-608 -131 -148 -153 0
-608 -131 -148 -154 0
-608 -132 -148 -154 0
-608 197 0
-608 -130 202 0
-608 -131 203 0
-608 -132 204 0
-608 -175 0
-609 164 0
-609 -133 0
-609 -157 -130 -161 0
-609 -157 -131 -162 0
-609 -157 -132 -163 0
-609 -124 0
-609 -128 0
-609 -129 0
-609 -130 -136 -142 0
-609 -130 -136 -143 0
-609 -130 -136 -144 0
-609 -131 -136 -143 0
-609 -131 -136 -144 0
-609 -132 -136 -144 0
-609 -130 -137 -142 0
-609 -130 -137 -143 0
-609 -130 -137 -144 0
-609 -131 -137 -143 0
-609 -131 -137 -144 0
-609 -132 -137 -144 0
-609 -130 -138 -142 0
-609 -130 -138 -143 0
-609 -130 -138 -144 0
-609 -131 -138 -143 0
-609 -131 -138 -144 0
-609 -132 -138 -144 0
-609 -130 -146 -152 0
-609 -130 -146 -153 0
-609 -130 -146 -154 0
-609 -131 -146 -153 0
-609 -131 -146 -154 0
-609 -132 -146 -154 0
-609 -130 -147 -152 0
-609 -130 -147 -153 0
-609 -130 -147 -154 0
-609 -131 -147 -153 0
-609 -131 -147 -154 0
-609 -132 -147 -154 0
-609 -130 -148 -152 0
-609 -130 -148 -153 0
-609 -130 -148 -154 0
-609 -131 -148 -153 0
-609 -131 -148 -154 0
-609 -132 -148 -154 0
-609 -130 -149 -152 0
-609 -130 -149 -153 0
-609 -130 -149 -154 0
-609 -131 -149 -153 0
-609 -131 -149 -154 0
-609 -132 -149 -154 0
-609 198 0
-609 -130 202 0
-609 -131 203 0
-609 -132 204 0
-609 -175 0
-610 164 0
-610 -133 0
-610 -158 -130 -161 0
-610 -158 -131 -162 0
-610 -158 -132 -163 0
-610 -124 0
-610 -125 0
-610 -129 0
-610 -130 -137 -142 0
-610 -130 -137 -143 0
-610 -130 -137 -144 0
-610 -131 -137 -143 0
-610 -131 -137 -144 0
-610 -132 -137 -144 0
-610 -130 -138 -142 0
-610 -130 -138 -143 0
-610 -130 -138 -144 0
-610 -131 -138 -143 0
-610 -131 -138 -144 0
-610 -132 -138 -144 0
-610 -130 -139 -142 0
-610 -130 -139 -143 0
-610 -130 -139 -144 0
-610 -131 -139 -143 0
-610 -131 -139 -144 0
-610 -132 -139 -144 0
-610 -130 -147 -152 0
-610 -130 -147 -153 0
-610 -130 -147 -154 0
-610 -131 -147 -153 0
-610 -131 -147 -154 0
-610 -132 -147 -154 0
-610 -130 -148 -152 0
-610 -130 -148 -153 0
-610 -130 -148 -154 0
-610 -131 -148 -153 0
-610 -131 -148 -154 0
-610 -132 -148 -154 0
-610 -130 -149 -152 0
-610 -130 -149 -153 0
-610 -130 -149 -154 0
-610 -131 -149 -153 0
-610 -131 -149 -154 0
-610 -132 -149 -154 0
-610 -130 -150 -152 0
-610 -130 -150 -153 0
-610 -130 -150 -154 0
-610 -131 -150 -153 0
-610 -131 -150 -154 0
-610 -132 -150 -154 0
-610 199 0
-610 -130 202 0
-610 -131 203 0
-610 -132 204 0
-610 -175 0
-611 164 0
-611 -133 0
-611 -159 -130 -161 0
-611 -159 -131 -162 0
-611 -159 -132 -163 0
-611 -124 0
-611 -125 0
-611 -126 0
-611 -130 -138 -142 0
-611 -130 -138 -143 0
-611 -130 -138 -144 0
-611 -131 -138 -143 0
-611 -131 -138 -144 0
-611 -132 -138 -144 0
-611 -130 -139 -142 0
-611 -130 -139 -143 0
-611 -130 -139 -144 0
-611 -131 -139 -143 0
-611 -131 -139 -144 0
-611 -132 -139 -144 0
-611 -130 -140 -142 0
-611 -130 -140 -143 0
-611 -130 -140 -144 0
-611 -131 -140 -143 0
-611 -131 -140 -144 0
-611 -132 -140 -144 0
-611 -130 -148 -152 0
-611 -130 -148 -153 0
-611 -130 -148 -154 0
-611 -131 -148 -153 0
-611 -131 -148 -154 0
-611 -132 -148 -154 0
-611 -130 -149 -152 0
-611 -130 -149 -153 0
-611 -130 -149 -154 0
-611 -131 -149 -153 0
-611 -131 -149 -154 0
-611 -132 -149 -154 0
-611 -130 -150 -152 0
-611 -130 -150 -153 0
-611 -130 -150 -154 0
-611 -131 -150 -153 0
-611 -131 -150 -154 0
-611 -132 -150 -154 0
-611 200 0
-611 -130 202 0
-611 -131 203 0
-611 -132 204 0
-611 -175 0
-612 164 0
-612 -144 0
-612 -156 -141 -161 0
-612 -156 -142 -162 0
-612 -156 -143 -163 0
-612 -138 0
-612 -139 0
-612 -140 0
-612 -141 -124 -131 0
-612 -141 -124 -132 0
-612 -141 -124 -133 0
-612 -142 -124 -132 0
-612 -142 -124 -133 0
-612 -143 -124 -133 0
-612 -141 -125 -131 0
-612 -141 -125 -132 0
-612 -141 -125 -133 0
-612 -142 -125 -132 0
-612 -142 -125 -133 0
-612 -143 -125 -133 0
-612 -141 -126 -131 0
-612 -141 -126 -132 0
-612 -141 -126 -133 0
-612 -142 -126 -132 0
-612 -142 -126 -133 0
-612 -143 -126 -133 0
-612 -141 -146 -152 0
-612 -141 -146 -153 0
-612 -141 -146 -154 0
-612 -142 -146 -153 0
-612 -142 -146 -154 0
-612 -143 -146 -154 0
-612 -141 -147 -152 0
-612 -141 -147 -153 0
-612 -141 -147 -154 0
-612 -142 -147 -153 0
-612 -142 -147 -154 0
-612 -143 -147 -154 0
-612 -141 -148 -152 0
-612 -141 -148 -153 0
-612 -141 -148 -154 0
-612 -142 -148 -153 0
-612 -142 -148 -154 0
-612 -143 -148 -154 0
-612 197 0
-612 -141 202 0
-612 -142 203 0
-612 -143 204 0
-612 -186 0
-613 164 0
-613 -144 0
-613 -157 -141 -161 0
-613 -157 -142 -162 0
-613 -157 -143 -163 0
-613 -135 0
-613 -139 0
-613 -140 0
-613 -141 -125 -131 0
-613 -141 -125 -132 0
-613 -141 -125 -133 0
-613 -142 -125 -132 0
-613 -142 -125 -133 0
-613 -143 -125 -133 0
-613 -141 -126 -131 0
-613 -141 -126 -132 0
-613 -141 -126 -133 0
-613 -142 -126 -132 0
-613 -142 -126 -133 0
-613 -143 -126 -133 0
-613 -141 -127 -131 0
-613 -141 -127 -132 0
-613 -141 -127 -133 0
-613 -142 -127 -132 0
-613 -142 -127 -133 0
-613 -143 -127 -133 0
-613 -141 -146 -152 0
-613 -141 -146 -153 0
-613 -141 -146 -154 0
-613 -142 -146 -153 0
-613 -142 -146 -154 0
-613 -143 -146 -154 0
-613 -141 -147 -152 0
-613 -141 -147 -153 0
-613 -141 -147 -154 0
-613 -142 -147 -153 0
-613 -142 -147 -154 0
-613 -143 -147 -154 0
-613 -141 -148 -152 0
-613 -141 -148 -153 0
-613 -141 -148 -154 0
-613 -142 -148 -153 0
-613 -142 -148 -154 0
-613 -143 -148 -154 0
-613 -141 -149 -152 0
-613 -141 -149 -153 0
-613 -141 -149 -154 0
-613 -142 -149 -153 0
-613 -142 -149 -154 0
-613 -143 -149 -154 0
-613 198 0
-613 -141 202 0
-613 -142 203 0
-613 -143 204 0
-613 -186 0
-614 164 0
-614 -144 0
-614 -158 -141 -161 0
-614 -158 -142 -162 0
-614 -158 -143 -163 0
-614 -135 0
-614 -136 0
-614 -140 0
-614 -141 -126 -131 0
-614 -141 -126 -132 0
-614 -141 -126 -133 0
-614 -142 -126 -132 0
-614 -142 -126 -133 0
-614 -143 -126 -133 0
-614 -141 -127 -131 0
-614 -141 -127 -132 0
-614 -141 -127 -133 0
-614 -142 -127 -132 0
-614 -142 -127 -133 0
-614 -143 -127 -133 0
-614 -141 -128 -131 0
-614 -141 -128 -132 0
-614 -141 -128 -133 0
-614 -142 -128 -132 0
-614 -142 -128 -133 0
-614 -143 -128 -133 0
-614 -141 -147 -152 0
-614 -141 -147 -153 0
-614 -141 -147 -154 0
-614 -142 -147 -153 0
-614 -142 -147 -154 0
-614 -143 -147 -154 0
-614 -141 -148 -152 0
-614 -141 -148 -153 0
-614 -141 -148 -154 0
-614 -142 -148 -153 0
-614 -142 -148 -154 0
-614 -143 -148 -154 0
-614 -141 -149 -152 0
-614 -141 -149 -153 0
-614 -141 -149 -154 0
-614 -142 -149 -153 0
-614 -142 -149 -154 0
-614 -143 -149 -154 0
-614 -141 -150 -152 0
-614 -141 -150 -153 0
-614 -141 -150 -154 0
-614 -142 -150 -153 0
-614 -142 -150 -154 0
-614 -143 -150 -154 0
-614 199 0
-614 -141 202 0
-614 -142 203 0
-614 -143 204 0
-614 -186 0
-615 164 0
-615 -144 0
-615 -159 -141 -161 0
-615 -159 -142 -162 0
-615 -159 -143 -163 0
-615 -135 0
-615 -136 0
-615 -137 0
-615 -141 -127 -131 0
-615 -141 -127 -132 0
-615 -141 -127 -133 0
-615 -142 -127 -132 0
-615 -142 -127 -133 0
-615 -143 -127 -133 0
-615 -141 -128 -131 0
-615 -141 -128 -132 0
-615 -141 -128 -133 0
-615 -142 -128 -132 0
-615 -142 -128 -133 0
-615 -143 -128 -133 0
-615 -141 -129 -131 0
-615 -141 -129 -132 0
-615 -141 -129 -133 0
-615 -142 -129 -132 0
-615 -142 -129 -133 0
-615 -143 -129 -133 0
-615 -141 -148 -152 0
-615 -141 -148 -153 0
-615 -141 -148 -154 0
-615 -142 -148 -153 0
-615 -142 -148 -154 0
-615 -143 -148 -154 0
-615 -141 -149 -152 0
-615 -141 -149 -153 0
-615 -141 -149 -154 0
-615 -142 -149 -153 0
-615 -142 -149 -154 0
-615 -143 -149 -154 0
-615 -141 -150 -152 0
-615 -141 -150 -153 0
-615 -141 -150 -154 0
-615 -142 -150 -153 0
-615 -142 -150 -154 0
-615 -143 -150 -154 0
-615 200 0
-615 -141 202 0
-615 -142 203 0
-615 -143 204 0
-615 -186 0
-616 164 0
-616 -154 0
-616 -156 -151 -161 0
-616 -156 -152 -162 0
-616 -156 -153 -163 0
-616 -149 0
-616 -150 0
-616 -151 -124 -131 0
-616 -151 -124 -132 0
-616 -151 -124 -133 0
-616 -152 -124 -132 0
-616 -152 -124 -133 0
-616 -153 -124 -133 0
-616 -151 -125 -131 0
-616 -151 -125 -132 0
-616 -151 -125 -133 0
-616 -152 -125 -132 0
-616 -152 -125 -133 0
-616 -153 -125 -133 0
-616 -151 -126 -131 0
-616 -151 -126 -132 0
-616 -151 -126 -133 0
-616 -152 -126 -132 0
-616 -152 -126 -133 0
-616 -153 -126 -133 0
-616 -151 -135 -142 0
-616 -151 -135 -143 0
-616 -151 -135 -144 0
-616 -152 -135 -143 0
-616 -152 -135 -144 0
-616 -153 -135 -144 0
-616 -151 -136 -142 0
-616 -151 -136 -143 0
-616 -151 -136 -144 0
-616 -152 -136 -143 0
-616 -152 -136 -144 0
-616 -153 -136 -144 0
-616 -151 -137 -142 0
-616 -151 -137 -143 0
-616 -151 -137 -144 0
-616 -152 -137 -143 0
-616 -152 -137 -144 0
-616 -153 -137 -144 0
-616 197 0
-616 -151 202 0
-616 -152 203 0
-616 -153 204 0
-616 -196 0
-617 164 0
-617 -154 0
-617 -157 -151 -161 0
-617 -157 -152 -162 0
-617 -157 -153 -163 0
-617 -150 0
-617 -151 -125 -131 0
-617 -151 -125 -132 0
-617 -151 -125 -133 0
-617 -152 -125 -132 0
-617 -152 -125 -133 0
-617 -153 -125 -133 0
-617 -151 -126 -131 0
-617 -151 -126 -132 0
-617 -151 -126 -133 0
-617 -152 -126 -132 0
-617 -152 -126 -133 0
-617 -153 -126 -133 0
-617 -151 -127 -131 0
-617 -151 -127 -132 0
-617 -151 -127 -133 0
-617 -152 -127 -132 0
-617 -152 -127 -133 0
-617 -153 -127 -133 0
-617 -151 -136 -142 0
-617 -151 -136 -143 0
-617 -151 -136 -144 0
-617 -152 -136 -143 0
-617 -152 -136 -144 0
-617 -153 -136 -144 0
-617 -151 -137 -142 0
-617 -151 -137 -143 0
-617 -151 -137 -144 0
-617 -152 -137 -143 0
-617 -152 -137 -144 0
-617 -153 -137 -144 0
-617 -151 -138 -142 0
-617 -151 -138 -143 0
-617 -151 -138 -144 0
-617 -152 -138 -143 0
-617 -152 -138 -144 0
-617 -153 -138 -144 0
-617 198 0
-617 -151 202 0
-617 -152 203 0
-617 -153 204 0
-617 -196 0
-618 164 0
-618 -154 0
-618 -158 -151 -161 0
-618 -158 -152 -162 0
-618 -158 -153 -163 0
-618 -146 0
-618 -151 -126 -131 0
-618 -151 -126 -132 0
-618 -151 -126 -133 0
-618 -152 -126 -132 0
-618 -152 -126 -133 0
-618 -153 -126 -133 0
-618 -151 -127 -131 0
-618 -151 -127 -132 0
-618 -151 -127 -133 0
-618 -152 -127 -132 0
-618 -152 -127 -133 0
-618 -153 -127 -133 0
-618 -151 -128 -131 0
-618 -151 -128 -132 0
-618 -151 -128 -133 0
-618 -152 -128 -132 0
-618 -152 -128 -133 0
-618 -153 -128 -133 0
-618 -151 -137 -142 0
-618 -151 -137 -143 0
-618 -151 -137 -144 0
-618 -152 -137 -143 0
-618 -152 -137 -144 0
-618 -153 -137 -144 0
-618 -151 -138 -142 0
-618 -151 -138 -143 0
-618 -151 -138 -144 0
-618 -152 -138 -143 0
-618 -152 -138 -144 0
-618 -153 -138 -144 0
-618 -151 -139 -142 0
-618 -151 -139 -143 0
-618 -151 -139 -144 0
-618 -152 -139 -143 0
-618 -152 -139 -144 0
-618 -153 -139 -144 0
-618 199 0
-618 -151 202 0
-618 -152 203 0
-618 -153 204 0
-618 -196 0
-619 164 0
-619 -154 0
-619 -159 -151 -161 0
-619 -159 -152 -162 0
-619 -159 -153 -163 0
-619 -146 0
-619 -147 0
-619 -151 -127 -131 0
-619 -151 -127 -132 0
-619 -151 -127 -133 0
-619 -152 -127 -132 0
-619 -152 -127 -133 0
-619 -153 -127 -133 0
-619 -151 -128 -131 0
-619 -151 -128 -132 0
-619 -151 -128 -133 0
-619 -152 -128 -132 0
-619 -152 -128 -133 0
-619 -153 -128 -133 0
-619 -151 -129 -131 0
-619 -151 -129 -132 0
-619 -151 -129 -133 0
-619 -152 -129 -132 0
-619 -152 -129 -133 0
-619 -153 -129 -133 0
-619 -151 -138 -142 0
-619 -151 -138 -143 0
-619 -151 -138 -144 0
-619 -152 -138 -143 0
-619 -152 -138 -144 0
-619 -153 -138 -144 0
-619 -151 -139 -142 0
-619 -151 -139 -143 0
-619 -151 -139 -144 0
-619 -152 -139 -143 0
-619 -152 -139 -144 0
-619 -153 -139 -144 0
-619 -151 -140 -142 0
-619 -151 -140 -143 0
-619 -151 -140 -144 0
-619 -152 -140 -143 0
-619 -152 -140 -144 0
-619 -153 -140 -144 0
-619 200 0
-619 -151 202 0
-619 -152 203 0
-619 -153 204 0
-619 -196 0
-620 164 0
-620 -156 -160 0
-620 -124 -130 0
-620 -124 -131 0
-620 -124 -132 0
-620 -124 -133 0
-620 -125 -130 0
-620 -125 -131 0
-620 -125 -132 0
-620 -125 -133 0
-620 -126 -130 0
-620 -126 -131 0
-620 -126 -132 0
-620 -126 -133 0
-620 -135 -141 0
-620 -135 -142 0
-620 -135 -143 0
-620 -135 -144 0
-620 -136 -141 0
-620 -136 -142 0
-620 -136 -143 0
-620 -136 -144 0
-620 -137 -141 0
-620 -137 -142 0
-620 -137 -143 0
-620 -137 -144 0
-620 -146 -151 0
-620 -146 -152 0
-620 -146 -153 0
-620 -146 -154 0
-620 -147 -151 0
-620 -147 -152 0
-620 -147 -153 0
-620 -147 -154 0
-620 -148 -151 0
-620 -148 -152 0
-620 -148 -153 0
-620 -148 -154 0
-620 197 0
-620 201 0
-621 164 0
-621 -157 -160 0
-621 -125 -130 0
-621 -125 -131 0
-621 -125 -132 0
-621 -125 -133 0
-621 -126 -130 0
-621 -126 -131 0
-621 -126 -132 0
-621 -126 -133 0
-621 -127 -130 0
-621 -127 -131 0
-621 -127 -132 0
-621 -127 -133 0
-621 -136 -141 0
-621 -136 -142 0
-621 -136 -143 0
-621 -136 -144 0
-621 -137 -141 0
-621 -137 -142 0
-621 -137 -143 0
-621 -137 -144 0
-621 -138 -141 0
-621 -138 -142 0
-621 -138 -143 0
-621 -138 -144 0
-621 -146 -151 0
-621 -146 -152 0
-621 -146 -153 0
-621 -146 -154 0
-621 -147 -151 0
-621 -147 -152 0
-621 -147 -153 0
-621 -147 -154 0
-621 -148 -151 0
-621 -148 -152 0
-621 -148 -153 0
-621 -148 -154 0
-621 -149 -151 0
-621 -149 -152 0
-621 -149 -153 0
-621 -149 -154 0
-621 198 0
-621 201 0
-622 164 0
-622 -158 -160 0
-622 -126 -130 0
-622 -126 -131 0
-622 -126 -132 0
-622 -126 -133 0
-622 -127 -130 0
-622 -127 -131 0
-622 -127 -132 0
-622 -127 -133 0
-622 -128 -130 0
-622 -128 -131 0
-622 -128 -132 0
-622 -128 -133 0
-622 -137 -141 0
-622 -137 -142 0
-622 -137 -143 0
-622 -137 -144 0
-622 -138 -141 0
-622 -138 -142 0
-622 -138 -143 0
-622 -138 -144 0
-622 -139 -141 0
-622 -139 -142 0
-622 -139 -143 0
-622 -139 -144 0
-622 -147 -151 0
-622 -147 -152 0
-622 -147 -153 0
-622 -147 -154 0
-622 -148 -151 0
-622 -148 -152 0
-622 -148 -153 0
-622 -148 -154 0
-622 -149 -151 0
-622 -149 -152 0
-622 -149 -153 0
-622 -149 -154 0
-622 -150 -151 0
-622 -150 -152 0
-622 -150 -153 0
-622 -150 -154 0
-622 199 0
-622 201 0
-623 164 0
-623 -159 -160 0
-623 -127 -130 0
-623 -127 -131 0
-623 -127 -132 0
-623 -127 -133 0
-623 -128 -130 0
-623 -128 -131 0
-623 -128 -132 0
-623 -128 -133 0
-623 -129 -130 0
-623 -129 -131 0
-623 -129 -132 0
-623 -129 -133 0
-623 -138 -141 0
-623 -138 -142 0
-623 -138 -143 0
-623 -138 -144 0
-623 -139 -141 0
-623 -139 -142 0
-623 -139 -143 0
-623 -139 -144 0
-623 -140 -141 0
-623 -140 -142 0
-623 -140 -143 0
-623 -140 -144 0
-623 -148 -151 0
-623 -148 -152 0
-623 -148 -153 0
-623 -148 -154 0
-623 -149 -151 0
-623 -149 -152 0
-623 -149 -153 0
-623 -149 -154 0
-623 -150 -151 0
-623 -150 -152 0
-623 -150 -153 0
-623 -150 -154 0
-623 200 0
-623 201 0
-624 175 0
-624 -185 0
-624 -165 -182 -172 0
-624 -165 -183 -173 0
-624 -165 -184 -174 0
-624 -177 0
-624 -178 0
-624 -179 0
-624 -180 0
-624 -181 0
-624 -182 -187 -193 0
-624 -182 -187 -194 0
-624 -182 -187 -195 0
-624 -183 -187 -194 0
-624 -183 -187 -195 0
-624 -184 -187 -195 0
-624 -182 -197 -202 0
-624 -182 -197 -203 0
-624 -182 -197 -204 0
-624 -183 -197 -203 0
-624 -183 -197 -204 0
-624 -184 -197 -204 0
-624 206 0
-624 -182 213 0
-624 -183 214 0
-624 -184 215 0
-624 -227 0
-625 175 0
-625 -185 0
-625 -166 -182 -172 0
-625 -166 -183 -173 0
-625 -166 -184 -174 0
-625 -176 0
-625 -178 0
-625 -179 0
-625 -180 0
-625 -181 0
-625 -182 -187 -193 0
-625 -182 -187 -194 0
-625 -182 -187 -195 0
-625 -183 -187 -194 0
-625 -183 -187 -195 0
-625 -184 -187 -195 0
-625 -182 -188 -193 0
-625 -182 -188 -194 0
-625 -182 -188 -195 0
-625 -183 -188 -194 0
-625 -183 -188 -195 0
-625 -184 -188 -195 0
-625 -182 -197 -202 0
-625 -182 -197 -203 0
-625 -182 -197 -204 0
-625 -183 -197 -203 0
-625 -183 -197 -204 0
-625 -184 -197 -204 0
-625 -182 -198 -202 0
-625 -182 -198 -203 0
-625 -182 -198 -204 0
-625 -183 -198 -203 0
-625 -183 -198 -204 0
-625 -184 -198 -204 0
-625 207 0
-625 -182 213 0
-625 -183 214 0
-625 -184 215 0
-625 -227 0
-626 175 0
-626 -185 0
-626 -167 -182 -172 0
-626 -167 -183 -173 0
-626 -167 -184 -174 0
-626 -176 0
-626 -177 0
-626 -179 0
-626 -180 0
-626 -181 0
-626 -182 -188 -193 0
-626 -182 -188 -194 0
-626 -182 -188 -195 0
-626 -183 -188 -194 0
-626 -183 -188 -195 0
-626 -184 -188 -195 0
-626 -182 -189 -193 0
-626 -182 -189 -194 0
-626 -182 -189 -195 0
-626 -183 -189 -194 0
-626 -183 -189 -195 0
-626 -184 -189 -195 0
-626 -182 -197 -202 0
-626 -182 -197 -203 0
-626 -182 -197 -204 0
-626 -183 -197 -203 0
-626 -183 -197 -204 0
-626 -184 -197 -204 0
-626 -182 -198 -202 0
-626 -182 -198 -203 0
-626 -182 -198 -204 0
-626 -183 -198 -203 0
-626 -183 -198 -204 0
-626 -184 -198 -204 0
-626 -182 -199 -202 0
-626 -182 -199 -203 0
-626 -182 -199 -204 0
-626 -183 -199 -203 0
-626 -183 -199 -204 0
-626 -184 -199 -204 0
-626 208 0
-626 -182 213 0
-626 -183 214 0
-626 -184 215 0
-626 -227 0
-627 175 0
-627 -185 0
-627 -168 -182 -172 0
-627 -168 -183 -173 0
-627 -168 -184 -174 0
-627 -176 0
-627 -177 0
-627 -178 0
-627 -180 0
-627 -181 0
-627 -182 -189 -193 0
-627 -182 -189 -194 0
-627 -182 -189 -195 0
-627 -183 -189 -194 0
-627 -183 -189 -195 0
-627 -184 -189 -195 0
-627 -182 -190 -193 0
-627 -182 -190 -194 0
-627 -182 -190 -195 0
-627 -183 -190 -194 0
-627 -183 -190 -195 0
-627 -184 -190 -195 0
-627 -182 -198 -202 0
-627 -182 -198 -203 0
-627 -182 -198 -204 0
-627 -183 -198 -203 0
-627 -183 -198 -204 0
-627 -184 -198 -204 0
-627 -182 -199 -202 0
-627 -182 -199 -203 0
-627 -182 -199 -204 0
-627 -183 -199 -203 0
-627 -183 -199 -204 0
-627 -184 -199 -204 0
-627 -182 -200 -202 0
-627 -182 -200 -203 0
-627 -182 -200 -204 0
-627 -183 -200 -203 0
-627 -183 -200 -204 0
-627 -184 -200 -204 0
-627 209 0
-627 -182 213 0
-627 -183 214 0
-627 -184 215 0
-627 -227 0
-628 175 0
-628 -185 0
-628 -169 -182 -172 0
-628 -169 -183 -173 0
-628 -169 -184 -174 0
-628 -176 0
-628 -177 0
-628 -178 0
-628 -179 0
-628 -181 0
-628 -182 -190 -193 0
-628 -182 -190 -194 0
-628 -182 -190 -195 0
-628 -183 -190 -194 0
-628 -183 -190 -195 0
-628 -184 -190 -195 0
-628 -182 -191 -193 0
-628 -182 -191 -194 0
-628 -182 -191 -195 0
-628 -183 -191 -194 0
-628 -183 -191 -195 0
-628 -184 -191 -195 0
-628 -182 -199 -202 0
-628 -182 -199 -203 0
-628 -182 -199 -204 0
-628 -183 -199 -203 0
-628 -183 -199 -204 0
-628 -184 -199 -204 0
-628 -182 -200 -202 0
-628 -182 -200 -203 0
-628 -182 -200 -204 0
-628 -183 -200 -203 0
-628 -183 -200 -204 0
-628 -184 -200 -204 0
-628 210 0
-628 -182 213 0
-628 -183 214 0
-628 -184 215 0
-628 -227 0
-629 175 0
-629 -185 0
-629 -170 -182 -172 0
-629 -170 -183 -173 0
-629 -170 -184 -174 0
-629 -176 0
-629 -177 0
-629 -178 0
-629 -179 0
-629 -180 0
-629 -182 -191 -193 0
-629 -182 -191 -194 0
-629 -182 -191 -195 0
-629 -183 -191 -194 0
-629 -183 -191 -195 0
-629 -184 -191 -195 0
-629 -182 -200 -202 0
-629 -182 -200 -203 0
-629 -182 -200 -204 0
-629 -183 -200 -203 0
-629 -183 -200 -204 0
-629 -184 -200 -204 0
-629 211 0
-629 -182 213 0
-629 -183 214 0
-629 -184 215 0
-629 -227 0
-630 175 0
-630 -195 0
-630 -165 -192 -172 0
-630 -165 -193 -173 0
-630 -165 -194 -174 0
-630 -188 0
-630 -189 0
-630 -190 0
-630 -191 0
-630 -192 -176 -183 0
-630 -192 -176 -184 0
-630 -192 -176 -185 0
-630 -193 -176 -184 0
-630 -193 -176 -185 0
-630 -194 -176 -185 0
-630 -192 -197 -202 0
-630 -192 -197 -203 0
-630 -192 -197 -204 0
-630 -193 -197 -203 0
-630 -193 -197 -204 0
-630 -194 -197 -204 0
-630 206 0
-630 -192 213 0
-630 -193 214 0
-630 -194 215 0
-630 -237 0
-631 175 0
-631 -195 0
-631 -166 -192 -172 0
-631 -166 -193 -173 0
-631 -166 -194 -174 0
-631 -189 0
-631 -190 0
-631 -191 0
-631 -192 -177 -183 0
-631 -192 -177 -184 0
-631 -192 -177 -185 0
-631 -193 -177 -184 0
-631 -193 -177 -185 0
-631 -194 -177 -185 0
-631 -192 -197 -202 0
-631 -192 -197 -203 0
-631 -192 -197 -204 0
-631 -193 -197 -203 0
-631 -193 -197 -204 0
-631 -194 -197 -204 0
-631 -192 -198 -202 0
-631 -192 -198 -203 0
-631 -192 -198 -204 0
-631 -193 -198 -203 0
-631 -193 -198 -204 0
-631 -194 -198 -204 0
-631 207 0
-631 -192 213 0
-631 -193 214 0
-631 -194 215 0
-631 -237 0
-632 175 0
-632 -195 0
-632 -167 -192 -172 0
-632 -167 -193 -173 0
-632 -167 -194 -174 0
-632 -187 0
-632 -190 0
-632 -191 0
-632 -192 -178 -183 0
-632 -192 -178 -184 0
-632 -192 -178 -185 0
-632 -193 -178 -184 0
-632 -193 -178 -185 0
-632 -194 -178 -185 0
-632 -192 -197 -202 0
-632 -192 -197 -203 0
-632 -192 -197 -204 0
-632 -193 -197 -203 0
-632 -193 -197 -204 0
-632 -194 -197 -204 0
-632 -192 -198 -202 0
-632 -192 -198 -203 0
-632 -192 -198 -204 0
-632 -193 -198 -203 0
-632 -193 -198 -204 0
-632 -194 -198 -204 0
-632 -192 -199 -202 0
-632 -192 -199 -203 0
-632 -192 -199 -204 0
-632 -193 -199 -203 0
-632 -193 -199 -204 0
-632 -194 -199 -204 0
-632 208 0
-632 -192 213 0
-632 -193 214 0
-632 -194 215 0
-632 -237 0
-633 175 0
-633 -195 0
-633 -168 -192 -172 0
-633 -168 -193 -173 0
-633 -168 -194 -174 0
-633 -187 0
-633 -188 0
-633 -191 0
-633 -192 -179 -183 0
-633 -192 -179 -184 0
-633 -192 -179 -185 0
-633 -193 -179 -184 0
-633 -193 -179 -185 0
-633 -194 -179 -185 0
-633 -192 -198 -202 0
-633 -192 -198 -203 0
-633 -192 -198 -204 0
-633 -193 -198 -203 0
-633 -193 -198 -204 0
-633 -194 -198 -204 0
-633 -192 -199 -202 0
-633 -192 -199 -203 0
-633 -192 -199 -204 0
-633 -193 -199 -203 0
-633 -193 -199 -204 0
-633 -194 -199 -204 0
-633 -192 -200 -202 0
-633 -192 -200 -203 0
-633 -192 -200 -204 0
-633 -193 -200 -203 0
-633 -193 -200 -204 0
-633 -194 -200 -204 0
-633 209 0
-633 -192 213 0
-633 -193 214 0
-633 -194 215 0
-633 -237 0
-634 175 0
-634 -195 0
-634 -169 -192 -172 0
-634 -169 -193 -173 0
-634 -169 -194 -174 0
-634 -187 0
-634 -188 0
-634 -189 0
-634 -192 -180 -183 0
-634 -192 -180 -184 0
-634 -192 -180 -185 0
-634 -193 -180 -184 0
-634 -193 -180 -185 0
-634 -194 -180 -185 0
-634 -192 -199 -202 0
-634 -192 -199 -203 0
-634 -192 -199 -204 0
-634 -193 -199 -203 0
-634 -193 -199 -204 0
-634 -194 -199 -204 0
-634 -192 -200 -202 0
-634 -192 -200 -203 0
-634 -192 -200 -204 0
-634 -193 -200 -203 0
-634 -193 -200 -204 0
-634 -194 -200 -204 0
-634 210 0
-634 -192 213 0
-634 -193 214 0
-634 -194 215 0
-634 -237 0
-635 175 0
-635 -195 0
-635 -170 -192 -172 0
-635 -170 -193 -173 0
-635 -170 -194 -174 0
-635 -187 0
-635 -188 0
-635 -189 0
-635 -190 0
-635 -192 -181 -183 0
-635 -192 -181 -184 0
-635 -192 -181 -185 0
-635 -193 -181 -184 0
-635 -193 -181 -185 0
-635 -194 -181 -185 0
-635 -192 -200 -202 0
-635 -192 -200 -203 0
-635 -192 -200 -204 0
-635 -193 -200 -203 0
-635 -193 -200 -204 0
-635 -194 -200 -204 0
-635 211 0
-635 -192 213 0
-635 -193 214 0
-635 -194 215 0
-635 -237 0
-636 175 0
-636 -204 0
-636 -165 -201 -172 0
-636 -165 -202 -173 0
-636 -165 -203 -174 0
-636 -198 0
-636 -199 0
-636 -200 0
-636 -201 -176 -183 0
-636 -201 -176 -184 0
-636 -201 -176 -185 0
-636 -202 -176 -184 0
-636 -202 -176 -185 0
-636 -203 -176 -185 0
-636 -201 -187 -193 0
-636 -201 -187 -194 0
-636 -201 -187 -195 0
-636 -202 -187 -194 0
-636 -202 -187 -195 0
-636 -203 -187 -195 0
-636 206 0
-636 -201 213 0
-636 -202 214 0
-636 -203 215 0
-636 -246 0
-637 175 0
-637 -204 0
-637 -166 -201 -172 0
-637 -166 -202 -173 0
-637 -166 -203 -174 0
-637 -199 0
-637 -200 0
-637 -201 -177 -183 0
-637 -201 -177 -184 0
-637 -201 -177 -185 0
-637 -202 -177 -184 0
-637 -202 -177 -185 0
-637 -203 -177 -185 0
-637 -201 -187 -193 0
-637 -201 -187 -194 0
-637 -201 -187 -195 0
-637 -202 -187 -194 0
-637 -202 -187 -195 0
-637 -203 -187 -195 0
-637 -201 -188 -193 0
-637 -201 -188 -194 0
-637 -201 -188 -195 0
-637 -202 -188 -194 0
-637 -202 -188 -195 0
-637 -203 -188 -195 0
-637 207 0
-637 -201 213 0
-637 -202 214 0
-637 -203 215 0
-637 -246 0
-638 175 0
-638 -204 0
-638 -167 -201 -172 0
-638 -167 -202 -173 0
-638 -167 -203 -174 0
-638 -200 0
-638 -201 -178 -183 0
-638 -201 -178 -184 0
-638 -201 -178 -185 0
-638 -202 -178 -184 0
-638 -202 -178 -185 0
-638 -203 -178 -185 0
-638 -201 -188 -193 0
-638 -201 -188 -194 0
-638 -201 -188 -195 0
-638 -202 -188 -194 0
-638 -202 -188 -195 0
-638 -203 -188 -195 0
-638 -201 -189 -193 0
-638 -201 -189 -194 0
-638 -201 -189 -195 0
-638 -202 -189 -194 0
-638 -202 -189 -195 0
-638 -203 -189 -195 0
-638 208 0
-638 -201 213 0
-638 -202 214 0
-638 -203 215 0
-638 -246 0
-639 175 0
-639 -204 0
-639 -168 -201 -172 0
-639 -168 -202 -173 0
-639 -168 -203 -174 0
-639 -197 0
-639 -201 -179 -183 0
-639 -201 -179 -184 0
-639 -201 -179 -185 0
-639 -202 -179 -184 0
-639 -202 -179 -185 0
-639 -203 -179 -185 0
-639 -201 -189 -193 0
-639 -201 -189 -194 0
-639 -201 -189 -195 0
-639 -202 -189 -194 0
-639 -202 -189 -195 0
-639 -203 -189 -195 0
-639 -201 -190 -193 0
-639 -201 -190 -194 0
-639 -201 -190 -195 0
-639 -202 -190 -194 0
-639 -202 -190 -195 0
-639 -203 -190 -195 0
-639 209 0
-639 -201 213 0
-639 -202 214 0
-639 -203 215 0
-639 -246 0
-640 175 0
-640 -204 0
-640 -169 -201 -172 0
-640 -169 -202 -173 0
-640 -169 -203 -174 0
-640 -197 0
-640 -198 0
-640 -201 -180 -183 0
-640 -201 -180 -184 0
-640 -201 -180 -185 0
-640 -202 -180 -184 0
-640 -202 -180 -185 0
-640 -203 -180 -185 0
-640 -201 -190 -193 0
-640 -201 -190 -194 0
-640 -201 -190 -195 0
-640 -202 -190 -194 0
-640 -202 -190 -195 0
-640 -203 -190 -195 0
-640 -201 -191 -193 0
-640 -201 -191 -194 0
-640 -201 -191 -195 0
-640 -202 -191 -194 0
-640 -202 -191 -195 0
-640 -203 -191 -195 0
-640 210 0
-640 -201 213 0
-640 -202 214 0
-640 -203 215 0
-640 -246 0
-641 175 0
-641 -204 0
-641 -170 -201 -172 0
-641 -170 -202 -173 0
-641 -170 -203 -174 0
-641 -197 0
-641 -198 0
-641 -199 0
-641 -201 -181 -183 0
-641 -201 -181 -184 0
-641 -201 -181 -185 0
-641 -202 -181 -184 0
-641 -202 -181 -185 0
-641 -203 -181 -185 0
-641 -201 -191 -193 0
-641 -201 -191 -194 0
-641 -201 -191 -195 0
-641 -202 -191 -194 0
-641 -202 -191 -195 0
-641 -203 -191 -195 0
-641 211 0
-641 -201 213 0
-641 -202 214 0
-641 -203 215 0
-641 -246 0
-642 175 0
-642 -165 -171 0
-642 -176 -182 0
-642 -176 -183 0
-642 -176 -184 0
-642 -176 -185 0
-642 -187 -192 0
-642 -187 -193 0
-642 -187 -194 0
-642 -187 -195 0
-642 -197 -201 0
-642 -197 -202 0
-642 -197 -203 0
-642 -197 -204 0
-642 206 0
-642 212 0
-643 175 0
-643 -166 -171 0
-643 -177 -182 0
-643 -177 -183 0
-643 -177 -184 0
-643 -177 -185 0
-643 -187 -192 0
-643 -187 -193 0
-643 -187 -194 0
-643 -187 -195 0
-643 -188 -192 0
-643 -188 -193 0
-643 -188 -194 0
-643 -188 -195 0
-643 -197 -201 0
-643 -197 -202 0
-643 -197 -203 0
-643 -197 -204 0
-643 -198 -201 0
-643 -198 -202 0
-643 -198 -203 0
-643 -198 -204 0
-643 207 0
-643 212 0
-644 175 0
-644 -167 -171 0
-644 -178 -182 0
-644 -178 -183 0
-644 -178 -184 0
-644 -178 -185 0
-644 -188 -192 0
-644 -188 -193 0
-644 -188 -194 0
-644 -188 -195 0
-644 -189 -192 0
-644 -189 -193 0
-644 -189 -194 0
-644 -189 -195 0
-644 -197 -201 0
-644 -197 -202 0
-644 -197 -203 0
-644 -197 -204 0
-644 -198 -201 0
-644 -198 -202 0
-644 -198 -203 0
-644 -198 -204 0
-644 -199 -201 0
-644 -199 -202 0
-644 -199 -203 0
-644 -199 -204 0
-644 208 0
-644 212 0
-645 175 0
-645 -168 -171 0
-645 -179 -182 0
-645 -179 -183 0
-645 -179 -184 0
-645 -179 -185 0
-645 -189 -192 0
-645 -189 -193 0
-645 -189 -194 0
-645 -189 -195 0
-645 -190 -192 0
-645 -190 -193 0
-645 -190 -194 0
-645 -190 -195 0
-645 -198 -201 0
-645 -198 -202 0
-645 -198 -203 0
-645 -198 -204 0
-645 -199 -201 0
-645 -199 -202 0
-645 -199 -203 0
-645 -199 -204 0
-645 -200 -201 0
-645 -200 -202 0
-645 -200 -203 0
-645 -200 -204 0
-645 209 0
-645 212 0
-646 175 0
-646 -169 -171 0
-646 -180 -182 0
-646 -180 -183 0
-646 -180 -184 0
-646 -180 -185 0
-646 -190 -192 0
-646 -190 -193 0
-646 -190 -194 0
-646 -190 -195 0
-646 -191 -192 0
-646 -191 -193 0
-646 -191 -194 0
-646 -191 -195 0
-646 -199 -201 0
-646 -199 -202 0
-646 -199 -203 0
-646 -199 -204 0
-646 -200 -201 0
-646 -200 -202 0
-646 -200 -203 0
-646 -200 -204 0
-646 210 0
-646 212 0
-647 175 0
-647 -170 -171 0
-647 -181 -182 0
-647 -181 -183 0
-647 -181 -184 0
-647 -181 -185 0
-647 -191 -192 0
-647 -191 -193 0
-647 -191 -194 0
-647 -191 -195 0
-647 -200 -201 0
-647 -200 -202 0
-647 -200 -203 0
-647 -200 -204 0
-647 211 0
-647 212 0
-648 186 0
-648 -174 0
-648 -176 -171 -183 0
-648 -176 -172 -184 0
-648 -176 -173 -185 0
-648 -166 0
-648 -167 0
-648 -168 0
-648 -169 0
-648 -170 0
-648 -171 -187 -193 0
-648 -171 -187 -194 0
-648 -171 -187 -195 0
-648 -172 -187 -194 0
-648 -172 -187 -195 0
-648 -173 -187 -195 0
-648 -171 -197 -202 0
-648 -171 -197 -203 0
-648 -171 -197 -204 0
-648 -172 -197 -203 0
-648 -172 -197 -204 0
-648 -173 -197 -204 0
-648 217 0
-648 -171 224 0
-648 -172 225 0
-648 -173 226 0
-648 -216 0
-649 186 0
-649 -174 0
-649 -177 -171 -183 0
-649 -177 -172 -184 0
-649 -177 -173 -185 0
-649 -165 0
-649 -167 0
-649 -168 0
-649 -169 0
-649 -170 0
-649 -171 -187 -193 0
-649 -171 -187 -194 0
-649 -171 -187 -195 0
-649 -172 -187 -194 0
-649 -172 -187 -195 0
-649 -173 -187 -195 0
-649 -171 -188 -193 0
-649 -171 -188 -194 0
-649 -171 -188 -195 0
-649 -172 -188 -194 0
-649 -172 -188 -195 0
-649 -173 -188 -195 0
-649 -171 -197 -202 0
-649 -171 -197 -203 0
-649 -171 -197 -204 0
-649 -172 -197 -203 0
-649 -172 -197 -204 0
-649 -173 -197 -204 0
-649 -171 -198 -202 0
-649 -171 -198 -203 0
-649 -171 -198 -204 0
-649 -172 -198 -203 0
-649 -172 -198 -204 0
-649 -173 -198 -204 0
-649 218 0
-649 -171 224 0
-649 -172 225 0
-649 -173 226 0
-649 -216 0
-650 186 0
-650 -174 0
-650 -178 -171 -183 0
-650 -178 -172 -184 0
-650 -178 -173 -185 0
-650 -165 0
-650 -166 0
-650 -168 0
-650 -169 0
-650 -170 0
-650 -171 -188 -193 0
-650 -171 -188 -194 0
-650 -171 -188 -195 0
-650 -172 -188 -194 0
-650 -172 -188 -195 0
-650 -173 -188 -195 0
-650 -171 -189 -193 0
-650 -171 -189 -194 0
-650 -171 -189 -195 0
-650 -172 -189 -194 0
-650 -172 -189 -195 0
-650 -173 -189 -195 0
-650 -171 -197 -202 0
-650 -171 -197 -203 0
-650 -171 -197 -204 0
-650 -172 -197 -203 0
-650 -172 -197 -204 0
-650 -173 -197 -204 0
-650 -171 -198 -202 0
-650 -171 -198 -203 0
-650 -171 -198 -204 0
-650 -172 -198 -203 0
-650 -172 -198 -204 0
-650 -173 -198 -204 0
-650 -171 -199 -202 0
-650 -171 -199 -203 0
-650 -171 -199 -204 0
-650 -172 -199 -203 0
-650 -172 -199 -204 0
-650 -173 -199 -204 0
-650 219 0
-650 -171 224 0
-650 -172 225 0
-650 -173 226 0
-650 -216 0
-651 186 0
-651 -174 0
-651 -179 -171 -183 0
-651 -179 -172 -184 0
-651 -179 -173 -185 0
-651 -165 0
-651 -166 0
-651 -167 0
-651 -169 0
-651 -170 0
-651 -171 -189 -193 0
-651 -171 -189 -194 0
-651 -171 -189 -195 0
-651 -172 -189 -194 0
-651 -172 -189 -195 0
-651 -173 -189 -195 0
-651 -171 -190 -193 0
-651 -171 -190 -194 0
-651 -171 -190 -195 0
-651 -172 -190 -194 0
-651 -172 -190 -195 0
-651 -173 -190 -195 0
-651 -171 -198 -202 0
-651 -171 -198 -203 0
-651 -171 -198 -204 0
-651 -172 -198 -203 0
-651 -172 -198 -204 0
-651 -173 -198 -204 0
-651 -171 -199 -202 0
-651 -171 -199 -203 0
-651 -171 -199 -204 0
-651 -172 -199 -203 0
-651 -172 -199 -204 0
-651 -173 -199 -204 0
-651 -171 -200 -202 0
-651 -171 -200 -203 0
-651 -171 -200 -204 0
-651 -172 -200 -203 0
-651 -172 -200 -204 0
-651 -173 -200 -204 0
-651 220 0
-651 -171 224 0
-651 -172 225 0
-651 -173 226 0
-651 -216 0
-652 186 0
-652 -174 0
-652 -180 -171 -183 0
-652 -180 -172 -184 0
-652 -180 -173 -185 0
-652 -165 0
-652 -166 0
-652 -167 0
-652 -168 0
-652 -170 0
-652 -171 -190 -193 0
-652 -171 -190 -194 0
-652 -171 -190 -195 0
-652 -172 -190 -194 0
-652 -172 -190 -195 0
-652 -173 -190 -195 0
-652 -171 -191 -193 0
-652 -171 -191 -194 0
-652 -171 -191 -195 0
-652 -172 -191 -194 0
-652 -172 -191 -195 0
-652 -173 -191 -195 0
-652 -171 -199 -202 0
-652 -171 -199 -203 0
-652 -171 -199 -204 0
-652 -172 -199 -203 0
-652 -172 -199 -204 0
-652 -173 -199 -204 0
-652 -171 -200 -202 0
-652 -171 -200 -203 0
-652 -171 -200 -204 0
-652 -172 -200 -203 0
-652 -172 -200 -204 0
-652 -173 -200 -204 0
-652 221 0
-652 -171 224 0
-652 -172 225 0
-652 -173 226 0
-652 -216 0
-653 186 0
-653 -174 0
-653 -181 -171 -183 0
-653 -181 -172 -184 0
-653 -181 -173 -185 0
-653 -165 0
-653 -166 0
-653 -167 0
-653 -168 0
-653 -169 0
-653 -171 -191 -193 0
-653 -171 -191 -194 0
-653 -171 -191 -195 0
-653 -172 -191 -194 0
-653 -172 -191 -195 0
-653 -173 -191 -195 0
-653 -171 -200 -202 0
-653 -171 -200 -203 0
-653 -171 -200 -204 0
-653 -172 -200 -203 0
-653 -172 -200 -204 0
-653 -173 -200 -204 0
-653 222 0
-653 -171 224 0
-653 -172 225 0
-653 -173 226 0
-653 -216 0
-654 186 0
-654 -195 0
-654 -176 -192 -183 0
-654 -176 -193 -184 0
-654 -176 -194 -185 0
-654 -188 0
-654 -189 0
-654 -190 0
-654 -191 0
-654 -192 -165 -172 0
-654 -192 -165 -173 0
-654 -192 -165 -174 0
-654 -193 -165 -173 0
-654 -193 -165 -174 0
-654 -194 -165 -174 0
-654 -192 -197 -202 0
-654 -192 -197 -203 0
-654 -192 -197 -204 0
-654 -193 -197 -203 0
-654 -193 -197 -204 0
-654 -194 -197 -204 0
-654 217 0
-654 -192 224 0
-654 -193 225 0
-654 -194 226 0
-654 -237 0
-655 186 0
-655 -195 0
-655 -177 -192 -183 0
-655 -177 -193 -184 0
-655 -177 -194 -185 0
-655 -189 0
-655 -190 0
-655 -191 0
-655 -192 -166 -172 0
-655 -192 -166 -173 0
-655 -192 -166 -174 0
-655 -193 -166 -173 0
-655 -193 -166 -174 0
-655 -194 -166 -174 0
-655 -192 -197 -202 0
-655 -192 -197 -203 0
-655 -192 -197 -204 0
-655 -193 -197 -203 0
-655 -193 -197 -204 0
-655 -194 -197 -204 0
-655 -192 -198 -202 0
-655 -192 -198 -203 0
-655 -192 -198 -204 0
-655 -193 -198 -203 0
-655 -193 -198 -204 0
-655 -194 -198 -204 0
-655 218 0
-655 -192 224 0
-655 -193 225 0
-655 -194 226 0
-655 -237 0
-656 186 0
-656 -195 0
-656 -178 -192 -183 0
-656 -178 -193 -184 0
-656 -178 -194 -185 0
-656 -187 0
-656 -190 0
-656 -191 0
-656 -192 -167 -172 0
-656 -192 -167 -173 0
-656 -192 -167 -174 0
-656 -193 -167 -173 0
-656 -193 -167 -174 0
-656 -194 -167 -174 0
-656 -192 -197 -202 0
-656 -192 -197 -203 0
-656 -192 -197 -204 0
-656 -193 -197 -203 0
-656 -193 -197 -204 0
-656 -194 -197 -204 0
-656 -192 -198 -202 0
-656 -192 -198 -203 0
-656 -192 -198 -204 0
-656 -193 -198 -203 0
-656 -193 -198 -204 0
-656 -194 -198 -204 0
-656 -192 -199 -202 0
-656 -192 -199 -203 0
-656 -192 -199 -204 0
-656 -193 -199 -203 0
-656 -193 -199 -204 0
-656 -194 -199 -204 0
-656 219 0
-656 -192 224 0
-656 -193 225 0
-656 -194 226 0
-656 -237 0
-657 186 0
-657 -195 0
-657 -179 -192 -183 0
-657 -179 -193 -184 0
-657 -179 -194 -185 0
-657 -187 0
-657 -188 0
-657 -191 0
-657 -192 -168 -172 0
-657 -192 -168 -173 0
-657 -192 -168 -174 0
-657 -193 -168 -173 0
-657 -193 -168 -174 0
-657 -194 -168 -174 0
-657 -192 -198 -202 0
-657 -192 -198 -203 0
-657 -192 -198 -204 0
-657 -193 -198 -203 0
-657 -193 -198 -204 0
-657 -194 -198 -204 0
-657 -192 -199 -202 0
-657 -192 -199 -203 0
-657 -192 -199 -204 0
-657 -193 -199 -203 0
-657 -193 -199 -204 0
-657 -194 -199 -204 0
-657 -192 -200 -202 0
-657 -192 -200 -203 0
-657 -192 -200 -204 0
-657 -193 -200 -203 0
-657 -193 -200 -204 0
-657 -194 -200 -204 0
-657 220 0
-657 -192 224 0
-657 -193 225 0
-657 -194 226 0
-657 -237 0
-658 186 0
-658 -195 0
-658 -180 -192 -183 0
-658 -180 -193 -184 0
-658 -180 -194 -185 0
-658 -187 0
-658 -188 0
-658 -189 0
-658 -192 -169 -172 0
-658 -192 -169 -173 0
-658 -192 -169 -174 0
-658 -193 -169 -173 0
-658 -193 -169 -174 0
-658 -194 -169 -174 0
-658 -192 -199 -202 0
-658 -192 -199 -203 0
-658 -192 -199 -204 0
-658 -193 -199 -203 0
-658 -193 -199 -204 0
-658 -194 -199 -204 0
-658 -192 -200 -202 0
-658 -192 -200 -203 0
-658 -192 -200 -204 0
-658 -193 -200 -203 0
-658 -193 -200 -204 0
-658 -194 -200 -204 0
-658 221 0
-658 -192 224 0
-658 -193 225 0
-658 -194 226 0
-658 -237 0
-659 186 0
-659 -195 0
-659 -181 -192 -183 0
-659 -181 -193 -184 0
-659 -181 -194 -185 0
-659 -187 0
-659 -188 0
-659 -189 0
-659 -190 0
-659 -192 -170 -172 0
-659 -192 -170 -173 0
-659 -192 -170 -174 0
-659 -193 -170 -173 0
-659 -193 -170 -174 0
-659 -194 -170 -174 0
-659 -192 -200 -202 0
-659 -192 -200 -203 0
-659 -192 -200 -204 0
-659 -193 -200 -203 0
-659 -193 -200 -204 0
-659 -194 -200 -204 0
-659 222 0
-659 -192 224 0
-659 -193 225 0
-659 -194 226 0
-659 -237 0
-660 186 0
-660 -204 0
-660 -176 -201 -183 0
-660 -176 -202 -184 0
-660 -176 -203 -185 0
-660 -198 0
-660 -199 0
-660 -200 0
-660 -201 -165 -172 0
-660 -201 -165 -173 0
-660 -201 -165 -174 0
-660 -202 -165 -173 0
-660 -202 -165 -174 0
-660 -203 -165 -174 0
-660 -201 -187 -193 0
-660 -201 -187 -194 0
-660 -201 -187 -195 0
-660 -202 -187 -194 0
-660 -202 -187 -195 0
-660 -203 -187 -195 0
-660 217 0
-660 -201 224 0
-660 -202 225 0
-660 -203 226 0
-660 -246 0
-661 186 0
-661 -204 0
-661 -177 -201 -183 0
-661 -177 -202 -184 0
-661 -177 -203 -185 0
-661 -199 0
-661 -200 0
-661 -201 -166 -172 0
-661 -201 -166 -173 0
-661 -201 -166 -174 0
-661 -202 -166 -173 0
-661 -202 -166 -174 0
-661 -203 -166 -174 0
-661 -201 -187 -193 0
-661 -201 -187 -194 0
-661 -201 -187 -195 0
-661 -202 -187 -194 0
-661 -202 -187 -195 0
-661 -203 -187 -195 0
-661 -201 -188 -193 0
-661 -201 -188 -194 0
-661 -201 -188 -195 0
-661 -202 -188 -194 0
-661 -202 -188 -195 0
-661 -203 -188 -195 0
-661 218 0
-661 -201 224 0
-661 -202 225 0
-661 -203 226 0
-661 -246 0
-662 186 0
-662 -204 0
-662 -178 -201 -183 0
-662 -178 -202 -184 0
-662 -178 -203 -185 0
-662 -200 0
-662 -201 -167 -172 0
-662 -201 -167 -173 0
-662 -201 -167 -174 0
-662 -202 -167 -173 0
-662 -202 -167 -174 0
-662 -203 -167 -174 0
-662 -201 -188 -193 0
-662 -201 -188 -194 0
-662 -201 -188 -195 0
-662 -202 -188 -194 0
-662 -202 -188 -195 0
-662 -203 -188 -195 0
-662 -201 -189 -193 0
-662 -201 -189 -194 0
-662 -201 -189 -195 0
-662 -202 -189 -194 0
-662 -202 -189 -195 0
-662 -203 -189 -195 0
-662 219 0
-662 -201 224 0
-662 -202 225 0
-662 -203 226 0
-662 -246 0
-663 186 0
-663 -204 0
-663 -179 -201 -183 0
-663 -179 -202 -184 0
-663 -179 -203 -185 0
-663 -197 0
-663 -201 -168 -172 0
-663 -201 -168 -173 0
-663 -201 -168 -174 0
-663 -202 -168 -173 0
-663 -202 -168 -174 0
-663 -203 -168 -174 0
-663 -201 -189 -193 0
-663 -201 -189 -194 0
-663 -201 -189 -195 0
-663 -202 -189 -194 0
-663 -202 -189 -195 0
-663 -203 -189 -195 0
-663 -201 -190 -193 0
-663 -201 -190 -194 0
-663 -201 -190 -195 0
-663 -202 -190 -194 0
-663 -202 -190 -195 0
-663 -203 -190 -195 0
-663 220 0
-663 -201 224 0
-663 -202 225 0
-663 -203 226 0
-663 -246 0
-664 186 0
-664 -204 0
-664 -180 -201 -183 0
-664 -180 -202 -184 0
-664 -180 -203 -185 0
-664 -197 0
-664 -198 0
-664 -201 -169 -172 0
-664 -201 -169 -173 0
-664 -201 -169 -174 0
-664 -202 -169 -173 0
-664 -202 -169 -174 0
-664 -203 -169 -174 0
-664 -201 -190 -193 0
-664 -201 -190 -194 0
-664 -201 -190 -195 0
-664 -202 -190 -194 0
-664 -202 -190 -195 0
-664 -203 -190 -195 0
-664 -201 -191 -193 0
-664 -201 -191 -194 0
-664 -201 -191 -195 0
-664 -202 -191 -194 0
-664 -202 -191 -195 0
-664 -203 -191 -195 0
-664 221 0
-664 -201 224 0
-664 -202 225 0
-664 -203 226 0
-664 -246 0
-665 186 0
-665 -204 0
-665 -181 -201 -183 0
-665 -181 -202 -184 0
-665 -181 -203 -185 0
-665 -197 0
-665 -198 0
-665 -199 0
-665 -201 -170 -172 0
-665 -201 -170 -173 0
-665 -201 -170 -174 0
-665 -202 -170 -173 0
-665 -202 -170 -174 0
-665 -203 -170 -174 0
-665 -201 -191 -193 0
-665 -201 -191 -194 0
-665 -201 -191 -195 0
-665 -202 -191 -194 0
-665 -202 -191 -195 0
-665 -203 -191 -195 0
-665 222 0
-665 -201 224 0
-665 -202 225 0
-665 -203 226 0
-665 -246 0
-666 186 0
-666 -176 -182 0
-666 -165 -171 0
-666 -165 -172 0
-666 -165 -173 0
-666 -165 -174 0
-666 -187 -192 0
-666 -187 -193 0
-666 -187 -194 0
-666 -187 -195 0
-666 -197 -201 0
-666 -197 -202 0
-666 -197 -203 0
-666 -197 -204 0
-666 217 0
-666 223 0
-667 186 0
-667 -177 -182 0
-667 -166 -171 0
-667 -166 -172 0
-667 -166 -173 0
-667 -166 -174 0
-667 -187 -192 0
-667 -187 -193 0
-667 -187 -194 0
-667 -187 -195 0
-667 -188 -192 0
-667 -188 -193 0
-667 -188 -194 0
-667 -188 -195 0
-667 -197 -201 0
-667 -197 -202 0
-667 -197 -203 0
-667 -197 -204 0
-667 -198 -201 0
-667 -198 -202 0
-667 -198 -203 0
-667 -198 -204 0
-667 218 0
-667 223 0
-668 186 0
-668 -178 -182 0
-668 -167 -171 0
-668 -167 -172 0
-668 -167 -173 0
-668 -167 -174 0
-668 -188 -192 0
-668 -188 -193 0
-668 -188 -194 0
-668 -188 -195 0
-668 -189 -192 0
-668 -189 -193 0
-668 -189 -194 0
-668 -189 -195 0
-668 -197 -201 0
-668 -197 -202 0
-668 -197 -203 0
-668 -197 -204 0
-668 -198 -201 0
-668 -198 -202 0
-668 -198 -203 0
-668 -198 -204 0
-668 -199 -201 0
-668 -199 -202 0
-668 -199 -203 0
-668 -199 -204 0
-668 219 0
-668 223 0
-669 186 0
-669 -179 -182 0
-669 -168 -171 0
-669 -168 -172 0
-669 -168 -173 0
-669 -168 -174 0
-669 -189 -192 0
-669 -189 -193 0
-669 -189 -194 0
-669 -189 -195 0
-669 -190 -192 0
-669 -190 -193 0
-669 -190 -194 0
-669 -190 -195 0
-669 -198 -201 0
-669 -198 -202 0
-669 -198 -203 0
-669 -198 -204 0
-669 -199 -201 0
-669 -199 -202 0
-669 -199 -203 0
-669 -199 -204 0
-669 -200 -201 0
-669 -200 -202 0
-669 -200 -203 0
-669 -200 -204 0
-669 220 0
-669 223 0
-670 186 0
-670 -180 -182 0
-670 -169 -171 0
-670 -169 -172 0
-670 -169 -173 0
-670 -169 -174 0
-670 -190 -192 0
-670 -190 -193 0
-670 -190 -194 0
-670 -190 -195 0
-670 -191 -192 0
-670 -191 -193 0
-670 -191 -194 0
-670 -191 -195 0
-670 -199 -201 0
-670 -199 -202 0
-670 -199 -203 0
-670 -199 -204 0
-670 -200 -201 0
-670 -200 -202 0
-670 -200 -203 0
-670 -200 -204 0
-670 221 0
-670 223 0
-671 186 0
-671 -181 -182 0
-671 -170 -171 0
-671 -170 -172 0
-671 -170 -173 0
-671 -170 -174 0
-671 -191 -192 0
-671 -191 -193 0
-671 -191 -194 0
-671 -191 -195 0
-671 -200 -201 0
-671 -200 -202 0
-671 -200 -203 0
-671 -200 -204 0
-671 222 0
-671 223 0
-672 196 0
-672 -174 0
-672 -187 -171 -193 0
-672 -187 -172 -194 0
-672 -187 -173 -195 0
-672 -167 0
-672 -168 0
-672 -169 0
-672 -170 0
-672 -171 -176 -183 0
-672 -171 -176 -184 0
-672 -171 -176 -185 0
-672 -172 -176 -184 0
-672 -172 -176 -185 0
-672 -173 -176 -185 0
-672 -171 -177 -183 0
-672 -171 -177 -184 0
-672 -171 -177 -185 0
-672 -172 -177 -184 0
-672 -172 -177 -185 0
-672 -173 -177 -185 0
-672 -171 -197 -202 0
-672 -171 -197 -203 0
-672 -171 -197 -204 0
-672 -172 -197 -203 0
-672 -172 -197 -204 0
-672 -173 -197 -204 0
-672 -171 -198 -202 0
-672 -171 -198 -203 0
-672 -171 -198 -204 0
-672 -172 -198 -203 0
-672 -172 -198 -204 0
-672 -173 -198 -204 0
-672 228 0
-672 -171 234 0
-672 -172 235 0
-672 -173 236 0
-672 -216 0
-673 196 0
-673 -174 0
-673 -188 -171 -193 0
-673 -188 -172 -194 0
-673 -188 -173 -195 0
-673 -165 0
-673 -168 0
-673 -169 0
-673 -170 0
-673 -171 -177 -183 0
-673 -171 -177 -184 0
-673 -171 -177 -185 0
-673 -172 -177 -184 0
-673 -172 -177 -185 0
-673 -173 -177 -185 0
-673 -171 -178 -183 0
-673 -171 -178 -184 0
-673 -171 -178 -185 0
-673 -172 -178 -184 0
-673 -172 -178 -185 0
-673 -173 -178 -185 0
-673 -171 -197 -202 0
-673 -171 -197 -203 0
-673 -171 -197 -204 0
-673 -172 -197 -203 0
-673 -172 -197 -204 0
-673 -173 -197 -204 0
-673 -171 -198 -202 0
-673 -171 -198 -203 0
-673 -171 -198 -204 0
-673 -172 -198 -203 0
-673 -172 -198 -204 0
-673 -173 -198 -204 0
-673 -171 -199 -202 0
-673 -171 -199 -203 0
-673 -171 -199 -204 0
-673 -172 -199 -203 0
-673 -172 -199 -204 0
-673 -173 -199 -204 0
-673 229 0
-673 -171 234 0
-673 -172 235 0
-673 -173 236 0
-673 -216 0
-674 196 0
-674 -174 0
-674 -189 -171 -193 0
-674 -189 -172 -194 0
-674 -189 -173 -195 0
-674 -165 0
-674 -166 0
-674 -169 0
-674 -170 0
-674 -171 -178 -183 0
-674 -171 -178 -184 0
-674 -171 -178 -185 0
-674 -172 -178 -184 0
-674 -172 -178 -185 0
-674 -173 -178 -185 0
-674 -171 -179 -183 0
-674 -171 -179 -184 0
-674 -171 -179 -185 0
-674 -172 -179 -184 0
-674 -172 -179 -185 0
-674 -173 -179 -185 0
-674 -171 -197 -202 0
-674 -171 -197 -203 0
-674 -171 -197 -204 0
-674 -172 -197 -203 0
-674 -172 -197 -204 0
-674 -173 -197 -204 0
-674 -171 -198 -202 0
-674 -171 -198 -203 0
-674 -171 -198 -204 0
-674 -172 -198 -203 0
-674 -172 -198 -204 0
-674 -173 -198 -204 0
-674 -171 -199 -202 0
-674 -171 -199 -203 0
-674 -171 -199 -204 0
-674 -172 -199 -203 0
-674 -172 -199 -204 0
-674 -173 -199 -204 0
-674 -171 -200 -202 0
-674 -171 -200 -203 0
-674 -171 -200 -204 0
-674 -172 -200 -203 0
-674 -172 -200 -204 0
-674 -173 -200 -204 0
-674 230 0
-674 -171 234 0
-674 -172 235 0
-674 -173 236 0
-674 -216 0
-675 196 0
-675 -174 0
-675 -190 -171 -193 0
-675 -190 -172 -194 0
-675 -190 -173 -195 0
-675 -165 0
-675 -166 0
-675 -167 0
-675 -170 0
-675 -171 -179 -183 0
-675 -171 -179 -184 0
-675 -171 -179 -185 0
-675 -172 -179 -184 0
-675 -172 -179 -185 0
-675 -173 -179 -185 0
-675 -171 -180 -183 0
-675 -171 -180 -184 0
-675 -171 -180 -185 0
-675 -172 -180 -184 0
-675 -172 -180 -185 0
-675 -173 -180 -185 0
-675 -171 -198 -202 0
-675 -171 -198 -203 0
-675 -171 -198 -204 0
-675 -172 -198 -203 0
-675 -172 -198 -204 0
-675 -173 -198 -204 0
-675 -171 -199 -202 0
-675 -171 -199 -203 0
-675 -171 -199 -204 0
-675 -172 -199 -203 0
-675 -172 -199 -204 0
-675 -173 -199 -204 0
-675 -171 -200 -202 0
-675 -171 -200 -203 0
-675 -171 -200 -204 0
-675 -172 -200 -203 0
-675 -172 -200 -204 0
-675 -173 -200 -204 0
-675 231 0
-675 -171 234 0
-675 -172 235 0
-675 -173 236 0
-675 -216 0
-676 196 0
-676 -174 0
-676 -191 -171 -193 0
-676 -191 -172 -194 0
-676 -191 -173 -195 0
-676 -165 0
-676 -166 0
-676 -167 0
-676 -168 0
-676 -171 -180 -183 0
-676 -171 -180 -184 0
-676 -171 -180 -185 0
-676 -172 -180 -184 0
-676 -172 -180 -185 0
-676 -173 -180 -185 0
-676 -171 -181 -183 0
-676 -171 -181 -184 0
-676 -171 -181 -185 0
-676 -172 -181 -184 0
-676 -172 -181 -185 0
-676 -173 -181 -185 0
-676 -171 -199 -202 0
-676 -171 -199 -203 0
-676 -171 -199 -204 0
-676 -172 -199 -203 0
-676 -172 -199 -204 0
-676 -173 -199 -204 0
-676 -171 -200 -202 0
-676 -171 -200 -203 0
-676 -171 -200 -204 0
-676 -172 -200 -203 0
-676 -172 -200 -204 0
-676 -173 -200 -204 0
-676 232 0
-676 -171 234 0
-676 -172 235 0
-676 -173 236 0
-676 -216 0
-677 196 0
-677 -185 0
-677 -187 -182 -193 0
-677 -187 -183 -194 0
-677 -187 -184 -195 0
-677 -178 0
-677 -179 0
-677 -180 0
-677 -181 0
-677 -182 -165 -172 0
-677 -182 -165 -173 0
-677 -182 -165 -174 0
-677 -183 -165 -173 0
-677 -183 -165 -174 0
-677 -184 -165 -174 0
-677 -182 -166 -172 0
-677 -182 -166 -173 0
-677 -182 -166 -174 0
-677 -183 -166 -173 0
-677 -183 -166 -174 0
-677 -184 -166 -174 0
-677 -182 -197 -202 0
-677 -182 -197 -203 0
-677 -182 -197 -204 0
-677 -183 -197 -203 0
-677 -183 -197 -204 0
-677 -184 -197 -204 0
-677 -182 -198 -202 0
-677 -182 -198 -203 0
-677 -182 -198 -204 0
-677 -183 -198 -203 0
-677 -183 -198 -204 0
-677 -184 -198 -204 0
-677 228 0
-677 -182 234 0
-677 -183 235 0
-677 -184 236 0
-677 -227 0
-678 196 0
-678 -185 0
-678 -188 -182 -193 0
-678 -188 -183 -194 0
-678 -188 -184 -195 0
-678 -176 0
-678 -179 0
-678 -180 0
-678 -181 0
-678 -182 -166 -172 0
-678 -182 -166 -173 0
-678 -182 -166 -174 0
-678 -183 -166 -173 0
-678 -183 -166 -174 0
-678 -184 -166 -174 0
-678 -182 -167 -172 0
-678 -182 -167 -173 0
-678 -182 -167 -174 0
-678 -183 -167 -173 0
-678 -183 -167 -174 0
-678 -184 -167 -174 0
-678 -182 -197 -202 0
-678 -182 -197 -203 0
-678 -182 -197 -204 0
-678 -183 -197 -203 0
-678 -183 -197 -204 0
-678 -184 -197 -204 0
-678 -182 -198 -202 0
-678 -182 -198 -203 0
-678 -182 -198 -204 0
-678 -183 -198 -203 0
-678 -183 -198 -204 0
-678 -184 -198 -204 0
-678 -182 -199 -202 0
-678 -182 -199 -203 0
-678 -182 -199 -204 0
-678 -183 -199 -203 0
-678 -183 -199 -204 0
-678 -184 -199 -204 0
-678 229 0
-678 -182 234 0
-678 -183 235 0
-678 -184 236 0
-678 -227 0
-679 196 0
-679 -185 0
-679 -189 -182 -193 0
-679 -189 -183 -194 0
-679 -189 -184 -195 0
-679 -176 0
-679 -177 0
-679 -180 0
-679 -181 0
-679 -182 -167 -172 0
-679 -182 -167 -173 0
-679 -182 -167 -174 0
-679 -183 -167 -173 0
-679 -183 -167 -174 0
-679 -184 -167 -174 0
-679 -182 -168 -172 0
-679 -182 -168 -173 0
-679 -182 -168 -174 0
-679 -183 -168 -173 0
-679 -183 -168 -174 0
-679 -184 -168 -174 0
-679 -182 -197 -202 0
-679 -182 -197 -203 0
-679 -182 -197 -204 0
-679 -183 -197 -203 0
-679 -183 -197 -204 0
-679 -184 -197 -204 0
-679 -182 -198 -202 0
-679 -182 -198 -203 0
-679 -182 -198 -204 0
-679 -183 -198 -203 0
-679 -183 -198 -204 0
-679 -184 -198 -204 0
-679 -182 -199 -202 0
-679 -182 -199 -203 0
-679 -182 -199 -204 0
-679 -183 -199 -203 0
-679 -183 -199 -204 0
-679 -184 -199 -204 0
-679 -182 -200 -202 0
-679 -182 -200 -203 0
-679 -182 -200 -204 0
-679 -183 -200 -203 0
-679 -183 -200 -204 0
-679 -184 -200 -204 0
-679 230 0
-679 -182 234 0
-679 -183 235 0
-679 -184 236 0
-679 -227 0
-680 196 0
-680 -185 0
-680 -190 -182 -193 0
-680 -190 -183 -194 0
-680 -190 -184 -195 0
-680 -176 0
-680 -177 0
-680 -178 0
-680 -181 0
-680 -182 -168 -172 0
-680 -182 -168 -173 0
-680 -182 -168 -174 0
-680 -183 -168 -173 0
-680 -183 -168 -174 0
-680 -184 -168 -174 0
-680 -182 -169 -172 0
-680 -182 -169 -173 0
-680 -182 -169 -174 0
-680 -183 -169 -173 0
-680 -183 -169 -174 0
-680 -184 -169 -174 0
-680 -182 -198 -202 0
-680 -182 -198 -203 0
-680 -182 -198 -204 0
-680 -183 -198 -203 0
-680 -183 -198 -204 0
-680 -184 -198 -204 0
-680 -182 -199 -202 0
-680 -182 -199 -203 0
-680 -182 -199 -204 0
-680 -183 -199 -203 0
-680 -183 -199 -204 0
-680 -184 -199 -204 0
-680 -182 -200 -202 0
-680 -182 -200 -203 0
-680 -182 -200 -204 0
-680 -183 -200 -203 0
-680 -183 -200 -204 0
-680 -184 -200 -204 0
-680 231 0
-680 -182 234 0
-680 -183 235 0
-680 -184 236 0
-680 -227 0
-681 196 0
-681 -185 0
-681 -191 -182 -193 0
-681 -191 -183 -194 0
-681 -191 -184 -195 0
-681 -176 0
-681 -177 0
-681 -178 0
-681 -179 0
-681 -182 -169 -172 0
-681 -182 -169 -173 0
-681 -182 -169 -174 0
-681 -183 -169 -173 0
-681 -183 -169 -174 0
-681 -184 -169 -174 0
-681 -182 -170 -172 0
-681 -182 -170 -173 0
-681 -182 -170 -174 0
-681 -183 -170 -173 0
-681 -183 -170 -174 0
-681 -184 -170 -174 0
-681 -182 -199 -202 0
-681 -182 -199 -203 0
-681 -182 -199 -204 0
-681 -183 -199 -203 0
-681 -183 -199 -204 0
-681 -184 -199 -204 0
-681 -182 -200 -202 0
-681 -182 -200 -203 0
-681 -182 -200 -204 0
-681 -183 -200 -203 0
-681 -183 -200 -204 0
-681 -184 -200 -204 0
-681 232 0
-681 -182 234 0
-681 -183 235 0
-681 -184 236 0
-681 -227 0
-682 196 0
-682 -204 0
-682 -187 -201 -193 0
-682 -187 -202 -194 0
-682 -187 -203 -195 0
-682 -199 0
-682 -200 0
-682 -201 -165 -172 0
-682 -201 -165 -173 0
-682 -201 -165 -174 0
-682 -202 -165 -173 0
-682 -202 -165 -174 0
-682 -203 -165 -174 0
-682 -201 -166 -172 0
-682 -201 -166 -173 0
-682 -201 -166 -174 0
-682 -202 -166 -173 0
-682 -202 -166 -174 0
-682 -203 -166 -174 0
-682 -201 -176 -183 0
-682 -201 -176 -184 0
-682 -201 -176 -185 0
-682 -202 -176 -184 0
-682 -202 -176 -185 0
-682 -203 -176 -185 0
-682 -201 -177 -183 0
-682 -201 -177 -184 0
-682 -201 -177 -185 0
-682 -202 -177 -184 0
-682 -202 -177 -185 0
-682 -203 -177 -185 0
-682 228 0
-682 -201 234 0
-682 -202 235 0
-682 -203 236 0
-682 -246 0
-683 196 0
-683 -204 0
-683 -188 -201 -193 0
-683 -188 -202 -194 0
-683 -188 -203 -195 0
-683 -200 0
-683 -201 -166 -172 0
-683 -201 -166 -173 0
-683 -201 -166 -174 0
-683 -202 -166 -173 0
-683 -202 -166 -174 0
-683 -203 -166 -174 0
-683 -201 -167 -172 0
-683 -201 -167 -173 0
-683 -201 -167 -174 0
-683 -202 -167 -173 0
-683 -202 -167 -174 0
-683 -203 -167 -174 0
-683 -201 -177 -183 0
-683 -201 -177 -184 0
-683 -201 -177 -185 0
-683 -202 -177 -184 0
-683 -202 -177 -185 0
-683 -203 -177 -185 0
-683 -201 -178 -183 0
-683 -201 -178 -184 0
-683 -201 -178 -185 0
-683 -202 -178 -184 0
-683 -202 -178 -185 0
-683 -203 -178 -185 0
-683 229 0
-683 -201 234 0
-683 -202 235 0
-683 -203 236 0
-683 -246 0
-684 196 0
-684 -204 0
-684 -189 -201 -193 0
-684 -189 -202 -194 0
-684 -189 -203 -195 0
-684 -201 -167 -172 0
-684 -201 -167 -173 0
-684 -201 -167 -174 0
-684 -202 -167 -173 0
-684 -202 -167 -174 0
-684 -203 -167 -174 0
-684 -201 -168 -172 0
-684 -201 -168 -173 0
-684 -201 -168 -174 0
-684 -202 -168 -173 0
-684 -202 -168 -174 0
-684 -203 -168 -174 0
-684 -201 -178 -183 0
-684 -201 -178 -184 0
-684 -201 -178 -185 0
-684 -202 -178 -184 0
-684 -202 -178 -185 0
-684 -203 -178 -185 0
-684 -201 -179 -183 0
-684 -201 -179 -184 0
-684 -201 -179 -185 0
-684 -202 -179 -184 0
-684 -202 -179 -185 0
-684 -203 -179 -185 0
-684 230 0
-684 -201 234 0
-684 -202 235 0
-684 -203 236 0
-684 -246 0
-685 196 0
-685 -204 0
-685 -190 -201 -193 0
-685 -190 -202 -194 0
-685 -190 -203 -195 0
-685 -197 0
-685 -201 -168 -172 0
-685 -201 -168 -173 0
-685 -201 -168 -174 0
-685 -202 -168 -173 0
-685 -202 -168 -174 0
-685 -203 -168 -174 0
-685 -201 -169 -172 0
-685 -201 -169 -173 0
-685 -201 -169 -174 0
-685 -202 -169 -173 0
-685 -202 -169 -174 0
-685 -203 -169 -174 0
-685 -201 -179 -183 0
-685 -201 -179 -184 0
-685 -201 -179 -185 0
-685 -202 -179 -184 0
-685 -202 -179 -185 0
-685 -203 -179 -185 0
-685 -201 -180 -183 0
-685 -201 -180 -184 0
-685 -201 -180 -185 0
-685 -202 -180 -184 0
-685 -202 -180 -185 0
-685 -203 -180 -185 0
-685 231 0
-685 -201 234 0
-685 -202 235 0
-685 -203 236 0
-685 -246 0
-686 196 0
-686 -204 0
-686 -191 -201 -193 0
-686 -191 -202 -194 0
-686 -191 -203 -195 0
-686 -197 0
-686 -198 0
-686 -201 -169 -172 0
-686 -201 -169 -173 0
-686 -201 -169 -174 0
-686 -202 -169 -173 0
-686 -202 -169 -174 0
-686 -203 -169 -174 0
-686 -201 -170 -172 0
-686 -201 -170 -173 0
-686 -201 -170 -174 0
-686 -202 -170 -173 0
-686 -202 -170 -174 0
-686 -203 -170 -174 0
-686 -201 -180 -183 0
-686 -201 -180 -184 0
-686 -201 -180 -185 0
-686 -202 -180 -184 0
-686 -202 -180 -185 0
-686 -203 -180 -185 0
-686 -201 -181 -183 0
-686 -201 -181 -184 0
-686 -201 -181 -185 0
-686 -202 -181 -184 0
-686 -202 -181 -185 0
-686 -203 -181 -185 0
-686 232 0
-686 -201 234 0
-686 -202 235 0
-686 -203 236 0
-686 -246 0
-687 196 0
-687 -187 -192 0
-687 -165 -171 0
-687 -165 -172 0
-687 -165 -173 0
-687 -165 -174 0
-687 -166 -171 0
-687 -166 -172 0
-687 -166 -173 0
-687 -166 -174 0
-687 -176 -182 0
-687 -176 -183 0
-687 -176 -184 0
-687 -176 -185 0
-687 -177 -182 0
-687 -177 -183 0
-687 -177 -184 0
-687 -177 -185 0
-687 -197 -201 0
-687 -197 -202 0
-687 -197 -203 0
-687 -197 -204 0
-687 -198 -201 0
-687 -198 -202 0
-687 -198 -203 0
-687 -198 -204 0
-687 228 0
-687 233 0
-688 196 0
-688 -188 -192 0
-688 -166 -171 0
-688 -166 -172 0
-688 -166 -173 0
-688 -166 -174 0
-688 -167 -171 0
-688 -167 -172 0
-688 -167 -173 0
-688 -167 -174 0
-688 -177 -182 0
-688 -177 -183 0
-688 -177 -184 0
-688 -177 -185 0
-688 -178 -182 0
-688 -178 -183 0
-688 -178 -184 0
-688 -178 -185 0
-688 -197 -201 0
-688 -197 -202 0
-688 -197 -203 0
-688 -197 -204 0
-688 -198 -201 0
-688 -198 -202 0
-688 -198 -203 0
-688 -198 -204 0
-688 -199 -201 0
-688 -199 -202 0
-688 -199 -203 0
-688 -199 -204 0
-688 229 0
-688 233 0
-689 196 0
-689 -189 -192 0
-689 -167 -171 0
-689 -167 -172 0
-689 -167 -173 0
-689 -167 -174 0
-689 -168 -171 0
-689 -168 -172 0
-689 -168 -173 0
-689 -168 -174 0
-689 -178 -182 0
-689 -178 -183 0
-689 -178 -184 0
-689 -178 -185 0
-689 -179 -182 0
-689 -179 -183 0
-689 -179 -184 0
-689 -179 -185 0
-689 -197 -201 0
-689 -197 -202 0
-689 -197 -203 0
-689 -197 -204 0
-689 -198 -201 0
-689 -198 -202 0
-689 -198 -203 0
-689 -198 -204 0
-689 -199 -201 0
-689 -199 -202 0
-689 -199 -203 0
-689 -199 -204 0
-689 -200 -201 0
-689 -200 -202 0
-689 -200 -203 0
-689 -200 -204 0
-689 230 0
-689 233 0
-690 196 0
-690 -190 -192 0
-690 -168 -171 0
-690 -168 -172 0
-690 -168 -173 0
-690 -168 -174 0
-690 -169 -171 0
-690 -169 -172 0
-690 -169 -173 0
-690 -169 -174 0
-690 -179 -182 0
-690 -179 -183 0
-690 -179 -184 0
-690 -179 -185 0
-690 -180 -182 0
-690 -180 -183 0
-690 -180 -184 0
-690 -180 -185 0
-690 -198 -201 0
-690 -198 -202 0
-690 -198 -203 0
-690 -198 -204 0
-690 -199 -201 0
-690 -199 -202 0
-690 -199 -203 0
-690 -199 -204 0
-690 -200 -201 0
-690 -200 -202 0
-690 -200 -203 0
-690 -200 -204 0
-690 231 0
-690 233 0
-691 196 0
-691 -191 -192 0
-691 -169 -171 0
-691 -169 -172 0
-691 -169 -173 0
-691 -169 -174 0
-691 -170 -171 0
-691 -170 -172 0
-691 -170 -173 0
-691 -170 -174 0
-691 -180 -182 0
-691 -180 -183 0
-691 -180 -184 0
-691 -180 -185 0
-691 -181 -182 0
-691 -181 -183 0
-691 -181 -184 0
-691 -181 -185 0
-691 -199 -201 0
-691 -199 -202 0
-691 -199 -203 0
-691 -199 -204 0
-691 -200 -201 0
-691 -200 -202 0
-691 -200 -203 0
-691 -200 -204 0
-691 232 0
-691 233 0
-692 205 0
-692 -174 0
-692 -197 -171 -202 0
-692 -197 -172 -203 0
-692 -197 -173 -204 0
-692 -168 0
-692 -169 0
-692 -170 0
-692 -171 -176 -183 0
-692 -171 -176 -184 0
-692 -171 -176 -185 0
-692 -172 -176 -184 0
-692 -172 -176 -185 0
-692 -173 -176 -185 0
-692 -171 -177 -183 0
-692 -171 -177 -184 0
-692 -171 -177 -185 0
-692 -172 -177 -184 0
-692 -172 -177 -185 0
-692 -173 -177 -185 0
-692 -171 -178 -183 0
-692 -171 -178 -184 0
-692 -171 -178 -185 0
-692 -172 -178 -184 0
-692 -172 -178 -185 0
-692 -173 -178 -185 0
-692 -171 -187 -193 0
-692 -171 -187 -194 0
-692 -171 -187 -195 0
-692 -172 -187 -194 0
-692 -172 -187 -195 0
-692 -173 -187 -195 0
-692 -171 -188 -193 0
-692 -171 -188 -194 0
-692 -171 -188 -195 0
-692 -172 -188 -194 0
-692 -172 -188 -195 0
-692 -173 -188 -195 0
-692 -171 -189 -193 0
-692 -171 -189 -194 0
-692 -171 -189 -195 0
-692 -172 -189 -194 0
-692 -172 -189 -195 0
-692 -173 -189 -195 0
-692 238 0
-692 -171 243 0
-692 -172 244 0
-692 -173 245 0
-692 -216 0
-693 205 0
-693 -174 0
-693 -198 -171 -202 0
-693 -198 -172 -203 0
-693 -198 -173 -204 0
-693 -165 0
-693 -169 0
-693 -170 0
-693 -171 -177 -183 0
-693 -171 -177 -184 0
-693 -171 -177 -185 0
-693 -172 -177 -184 0
-693 -172 -177 -185 0
-693 -173 -177 -185 0
-693 -171 -178 -183 0
-693 -171 -178 -184 0
-693 -171 -178 -185 0
-693 -172 -178 -184 0
-693 -172 -178 -185 0
-693 -173 -178 -185 0
-693 -171 -179 -183 0
-693 -171 -179 -184 0
-693 -171 -179 -185 0
-693 -172 -179 -184 0
-693 -172 -179 -185 0
-693 -173 -179 -185 0
-693 -171 -187 -193 0
-693 -171 -187 -194 0
-693 -171 -187 -195 0
-693 -172 -187 -194 0
-693 -172 -187 -195 0
-693 -173 -187 -195 0
-693 -171 -188 -193 0
-693 -171 -188 -194 0
-693 -171 -188 -195 0
-693 -172 -188 -194 0
-693 -172 -188 -195 0
-693 -173 -188 -195 0
-693 -171 -189 -193 0
-693 -171 -189 -194 0
-693 -171 -189 -195 0
-693 -172 -189 -194 0
-693 -172 -189 -195 0
-693 -173 -189 -195 0
-693 -171 -190 -193 0
-693 -171 -190 -194 0
-693 -171 -190 -195 0
-693 -172 -190 -194 0
-693 -172 -190 -195 0
-693 -173 -190 -195 0
-693 239 0
-693 -171 243 0
-693 -172 244 0
-693 -173 245 0
-693 -216 0
-694 205 0
-694 -174 0
-694 -199 -171 -202 0
-694 -199 -172 -203 0
-694 -199 -173 -204 0
-694 -165 0
-694 -166 0
-694 -170 0
-694 -171 -178 -183 0
-694 -171 -178 -184 0
-694 -171 -178 -185 0
-694 -172 -178 -184 0
-694 -172 -178 -185 0
-694 -173 -178 -185 0
-694 -171 -179 -183 0
-694 -171 -179 -184 0
-694 -171 -179 -185 0
-694 -172 -179 -184 0
-694 -172 -179 -185 0
-694 -173 -179 -185 0
-694 -171 -180 -183 0
-694 -171 -180 -184 0
-694 -171 -180 -185 0
-694 -172 -180 -184 0
-694 -172 -180 -185 0
-694 -173 -180 -185 0
-694 -171 -188 -193 0
-694 -171 -188 -194 0
-694 -171 -188 -195 0
-694 -172 -188 -194 0
-694 -172 -188 -195 0
-694 -173 -188 -195 0
-694 -171 -189 -193 0
-694 -171 -189 -194 0
-694 -171 -189 -195 0
-694 -172 -189 -194 0
-694 -172 -189 -195 0
-694 -173 -189 -195 0
-694 -171 -190 -193 0
-694 -171 -190 -194 0
-694 -171 -190 -195 0
-694 -172 -190 -194 0
-694 -172 -190 -195 0
-694 -173 -190 -195 0
-694 -171 -191 -193 0
-694 -171 -191 -194 0
-694 -171 -191 -195 0
-694 -172 -191 -194 0
-694 -172 -191 -195 0
-694 -173 -191 -195 0
-694 240 0
-694 -171 243 0
-694 -172 244 0
-694 -173 245 0
-694 -216 0
-695 205 0
-695 -174 0
-695 -200 -171 -202 0
-695 -200 -172 -203 0
-695 -200 -173 -204 0
-695 -165 0
-695 -166 0
-695 -167 0
-695 -171 -179 -183 0
-695 -171 -179 -184 0
-695 -171 -179 -185 0
-695 -172 -179 -184 0
-695 -172 -179 -185 0
-695 -173 -179 -185 0
-695 -171 -180 -183 0
-695 -171 -180 -184 0
-695 -171 -180 -185 0
-695 -172 -180 -184 0
-695 -172 -180 -185 0
-695 -173 -180 -185 0
-695 -171 -181 -183 0
-695 -171 -181 -184 0
-695 -171 -181 -185 0
-695 -172 -181 -184 0
-695 -172 -181 -185 0
-695 -173 -181 -185 0
-695 -171 -189 -193 0
-695 -171 -189 -194 0
-695 -171 -189 -195 0
-695 -172 -189 -194 0
-695 -172 -189 -195 0
-695 -173 -189 -195 0
-695 -171 -190 -193 0
-695 -171 -190 -194 0
-695 -171 -190 -195 0
-695 -172 -190 -194 0
-695 -172 -190 -195 0
-695 -173 -190 -195 0
-695 -171 -191 -193 0
-695 -171 -191 -194 0
-695 -171 -191 -195 0
-695 -172 -191 -194 0
-695 -172 -191 -195 0
-695 -173 -191 -195 0
-695 241 0
-695 -171 243 0
-695 -172 244 0
-695 -173 245 0
-695 -216 0
-696 205 0
-696 -185 0
-696 -197 -182 -202 0
-696 -197 -183 -203 0
-696 -197 -184 -204 0
-696 -179 0
-696 -180 0
-696 -181 0
-696 -182 -165 -172 0
-696 -182 -165 -173 0
-696 -182 -165 -174 0
-696 -183 -165 -173 0
-696 -183 -165 -174 0
-696 -184 -165 -174 0
-696 -182 -166 -172 0
-696 -182 -166 -173 0
-696 -182 -166 -174 0
-696 -183 -166 -173 0
-696 -183 -166 -174 0
-696 -184 -166 -174 0
-696 -182 -167 -172 0
-696 -182 -167 -173 0
-696 -182 -167 -174 0
-696 -183 -167 -173 0
-696 -183 -167 -174 0
-696 -184 -167 -174 0
-696 -182 -187 -193 0
-696 -182 -187 -194 0
-696 -182 -187 -195 0
-696 -183 -187 -194 0
-696 -183 -187 -195 0
-696 -184 -187 -195 0
-696 -182 -188 -193 0
-696 -182 -188 -194 0
-696 -182 -188 -195 0
-696 -183 -188 -194 0
-696 -183 -188 -195 0
-696 -184 -188 -195 0
-696 -182 -189 -193 0
-696 -182 -189 -194 0
-696 -182 -189 -195 0
-696 -183 -189 -194 0
-696 -183 -189 -195 0
-696 -184 -189 -195 0
-696 238 0
-696 -182 243 0
-696 -183 244 0
-696 -184 245 0
-696 -227 0
-697 205 0
-697 -185 0
-697 -198 -182 -202 0
-697 -198 -183 -203 0
-697 -198 -184 -204 0
-697 -176 0
-697 -180 0
-697 -181 0
-697 -182 -166 -172 0
-697 -182 -166 -173 0
-697 -182 -166 -174 0
-697 -183 -166 -173 0
-697 -183 -166 -174 0
-697 -184 -166 -174 0
-697 -182 -167 -172 0
-697 -182 -167 -173 0
-697 -182 -167 -174 0
-697 -183 -167 -173 0
-697 -183 -167 -174 0
-697 -184 -167 -174 0
-697 -182 -168 -172 0
-697 -182 -168 -173 0
-697 -182 -168 -174 0
-697 -183 -168 -173 0
-697 -183 -168 -174 0
-697 -184 -168 -174 0
-697 -182 -187 -193 0
-697 -182 -187 -194 0
-697 -182 -187 -195 0
-697 -183 -187 -194 0
-697 -183 -187 -195 0
-697 -184 -187 -195 0
-697 -182 -188 -193 0
-697 -182 -188 -194 0
-697 -182 -188 -195 0
-697 -183 -188 -194 0
-697 -183 -188 -195 0
-697 -184 -188 -195 0
-697 -182 -189 -193 0
-697 -182 -189 -194 0
-697 -182 -189 -195 0
-697 -183 -189 -194 0
-697 -183 -189 -195 0
-697 -184 -189 -195 0
-697 -182 -190 -193 0
-697 -182 -190 -194 0
-697 -182 -190 -195 0
-697 -183 -190 -194 0
-697 -183 -190 -195 0
-697 -184 -190 -195 0
-697 239 0
-697 -182 243 0
-697 -183 244 0
-697 -184 245 0
-697 -227 0
-698 205 0
-698 -185 0
-698 -199 -182 -202 0
-698 -199 -183 -203 0
-698 -199 -184 -204 0
-698 -176 0
-698 -177 0
-698 -181 0
-698 -182 -167 -172 0
-698 -182 -167 -173 0
-698 -182 -167 -174 0
-698 -183 -167 -173 0
-698 -183 -167 -174 0
-698 -184 -167 -174 0
-698 -182 -168 -172 0
-698 -182 -168 -173 0
-698 -182 -168 -174 0
-698 -183 -168 -173 0
-698 -183 -168 -174 0
-698 -184 -168 -174 0
-698 -182 -169 -172 0
-698 -182 -169 -173 0
-698 -182 -169 -174 0
-698 -183 -169 -173 0
-698 -183 -169 -174 0
-698 -184 -169 -174 0
-698 -182 -188 -193 0
-698 -182 -188 -194 0
-698 -182 -188 -195 0
-698 -183 -188 -194 0
-698 -183 -188 -195 0
-698 -184 -188 -195 0
-698 -182 -189 -193 0
-698 -182 -189 -194 0
-698 -182 -189 -195 0
-698 -183 -189 -194 0
-698 -183 -189 -195 0
-698 -184 -189 -195 0
-698 -182 -190 -193 0
-698 -182 -190 -194 0
-698 -182 -190 -195 0
-698 -183 -190 -194 0
-698 -183 -190 -195 0
-698 -184 -190 -195 0
-698 -182 -191 -193 0
-698 -182 -191 -194 0
-698 -182 -191 -195 0
-698 -183 -191 -194 0
-698 -183 -191 -195 0
-698 -184 -191 -195 0
-698 240 0
-698 -182 243 0
-698 -183 244 0
-698 -184 245 0
-698 -227 0
-699 205 0
-699 -185 0
-699 -200 -182 -202 0
-699 -200 -183 -203 0
-699 -200 -184 -204 0
-699 -176 0
-699 -177 0
-699 -178 0
-699 -182 -168 -172 0
-699 -182 -168 -173 0
-699 -182 -168 -174 0
-699 -183 -168 -173 0
-699 -183 -168 -174 0
-699 -184 -168 -174 0
-699 -182 -169 -172 0
-699 -182 -169 -173 0
-699 -182 -169 -174 0
-699 -183 -169 -173 0
-699 -183 -169 -174 0
-699 -184 -169 -174 0
-699 -182 -170 -172 0
-699 -182 -170 -173 0
-699 -182 -170 -174 0
-699 -183 -170 -173 0
-699 -183 -170 -174 0
-699 -184 -170 -174 0
-699 -182 -189 -193 0
-699 -182 -189 -194 0
-699 -182 -189 -195 0
-699 -183 -189 -194 0
-699 -183 -189 -195 0
-699 -184 -189 -195 0
-699 -182 -190 -193 0
-699 -182 -190 -194 0
-699 -182 -190 -195 0
-699 -183 -190 -194 0
-699 -183 -190 -195 0
-699 -184 -190 -195 0
-699 -182 -191 -193 0
-699 -182 -191 -194 0
-699 -182 -191 -195 0
-699 -183 -191 -194 0
-699 -183 -191 -195 0
-699 -184 -191 -195 0
-699 241 0
-699 -182 243 0
-699 -183 244 0
-699 -184 245 0
-699 -227 0
-700 205 0
-700 -195 0
-700 -197 -192 -202 0
-700 -197 -193 -203 0
-700 -197 -194 -204 0
-700 -190 0
-700 -191 0
-700 -192 -165 -172 0
-700 -192 -165 -173 0
-700 -192 -165 -174 0
-700 -193 -165 -173 0
-700 -193 -165 -174 0
-700 -194 -165 -174 0
-700 -192 -166 -172 0
-700 -192 -166 -173 0
-700 -192 -166 -174 0
-700 -193 -166 -173 0
-700 -193 -166 -174 0
-700 -194 -166 -174 0
-700 -192 -167 -172 0
-700 -192 -167 -173 0
-700 -192 -167 -174 0
-700 -193 -167 -173 0
-700 -193 -167 -174 0
-700 -194 -167 -174 0
-700 -192 -176 -183 0
-700 -192 -176 -184 0
-700 -192 -176 -185 0
-700 -193 -176 -184 0
-700 -193 -176 -185 0
-700 -194 -176 -185 0
-700 -192 -177 -183 0
-700 -192 -177 -184 0
-700 -192 -177 -185 0
-700 -193 -177 -184 0
-700 -193 -177 -185 0
-700 -194 -177 -185 0
-700 -192 -178 -183 0
-700 -192 -178 -184 0
-700 -192 -178 -185 0
-700 -193 -178 -184 0
-700 -193 -178 -185 0
-700 -194 -178 -185 0
-700 238 0
-700 -192 243 0
-700 -193 244 0
-700 -194 245 0
-700 -237 0
-701 205 0
-701 -195 0
-701 -198 -192 -202 0
-701 -198 -193 -203 0
-701 -198 -194 -204 0
-701 -191 0
-701 -192 -166 -172 0
-701 -192 -166 -173 0
-701 -192 -166 -174 0
-701 -193 -166 -173 0
-701 -193 -166 -174 0
-701 -194 -166 -174 0
-701 -192 -167 -172 0
-701 -192 -167 -173 0
-701 -192 -167 -174 0
-701 -193 -167 -173 0
-701 -193 -167 -174 0
-701 -194 -167 -174 0
-701 -192 -168 -172 0
-701 -192 -168 -173 0
-701 -192 -168 -174 0
-701 -193 -168 -173 0
-701 -193 -168 -174 0
-701 -194 -168 -174 0
-701 -192 -177 -183 0
-701 -192 -177 -184 0
-701 -192 -177 -185 0
-701 -193 -177 -184 0
-701 -193 -177 -185 0
-701 -194 -177 -185 0
-701 -192 -178 -183 0
-701 -192 -178 -184 0
-701 -192 -178 -185 0
-701 -193 -178 -184 0
-701 -193 -178 -185 0
-701 -194 -178 -185 0
-701 -192 -179 -183 0
-701 -192 -179 -184 0
-701 -192 -179 -185 0
-701 -193 -179 -184 0
-701 -193 -179 -185 0
-701 -194 -179 -185 0
-701 239 0
-701 -192 243 0
-701 -193 244 0
-701 -194 245 0
-701 -237 0
-702 205 0
-702 -195 0
-702 -199 -192 -202 0
-702 -199 -193 -203 0
-702 -199 -194 -204 0
-702 -187 0
-702 -192 -167 -172 0
-702 -192 -167 -173 0
-702 -192 -167 -174 0
-702 -193 -167 -173 0
-702 -193 -167 -174 0
-702 -194 -167 -174 0
-702 -192 -168 -172 0
-702 -192 -168 -173 0
-702 -192 -168 -174 0
-702 -193 -168 -173 0
-702 -193 -168 -174 0
-702 -194 -168 -174 0
-702 -192 -169 -172 0
-702 -192 -169 -173 0
-702 -192 -169 -174 0
-702 -193 -169 -173 0
-702 -193 -169 -174 0
-702 -194 -169 -174 0
-702 -192 -178 -183 0
-702 -192 -178 -184 0
-702 -192 -178 -185 0
-702 -193 -178 -184 0
-702 -193 -178 -185 0
-702 -194 -178 -185 0
-702 -192 -179 -183 0
-702 -192 -179 -184 0
-702 -192 -179 -185 0
-702 -193 -179 -184 0
-702 -193 -179 -185 0
-702 -194 -179 -185 0
-702 -192 -180 -183 0
-702 -192 -180 -184 0
-702 -192 -180 -185 0
-702 -193 -180 -184 0
-702 -193 -180 -185 0
-702 -194 -180 -185 0
-702 240 0
-702 -192 243 0
-702 -193 244 0
-702 -194 245 0
-702 -237 0
-703 205 0
-703 -195 0
-703 -200 -192 -202 0
-703 -200 -193 -203 0
-703 -200 -194 -204 0
-703 -187 0
-703 -188 0
-703 -192 -168 -172 0
-703 -192 -168 -173 0
-703 -192 -168 -174 0
-703 -193 -168 -173 0
-703 -193 -168 -174 0
-703 -194 -168 -174 0
-703 -192 -169 -172 0
-703 -192 -169 -173 0
-703 -192 -169 -174 0
-703 -193 -169 -173 0
-703 -193 -169 -174 0
-703 -194 -169 -174 0
-703 -192 -170 -172 0
-703 -192 -170 -173 0
-703 -192 -170 -174 0
-703 -193 -170 -173 0
-703 -193 -170 -174 0
-703 -194 -170 -174 0
-703 -192 -179 -183 0
-703 -192 -179 -184 0
-703 -192 -179 -185 0
-703 -193 -179 -184 0
-703 -193 -179 -185 0
-703 -194 -179 -185 0
-703 -192 -180 -183 0
-703 -192 -180 -184 0
-703 -192 -180 -185 0
-703 -193 -180 -184 0
-703 -193 -180 -185 0
-703 -194 -180 -185 0
-703 -192 -181 -183 0
-703 -192 -181 -184 0
-703 -192 -181 -185 0
-703 -193 -181 -184 0
-703 -193 -181 -185 0
-703 -194 -181 -185 0
-703 241 0
-703 -192 243 0
-703 -193 244 0
-703 -194 245 0
-703 -237 0
-704 205 0
-704 -197 -201 0
-704 -165 -171 0
-704 -165 -172 0
-704 -165 -173 0
-704 -165 -174 0
-704 -166 -171 0
-704 -166 -172 0
-704 -166 -173 0
-704 -166 -174 0
-704 -167 -171 0
-704 -167 -172 0
-704 -167 -173 0
-704 -167 -174 0
-704 -176 -182 0
-704 -176 -183 0
-704 -176 -184 0
-704 -176 -185 0
-704 -177 -182 0
-704 -177 -183 0
-704 -177 -184 0
-704 -177 -185 0
-704 -178 -182 0
-704 -178 -183 0
-704 -178 -184 0
-704 -178 -185 0
-704 -187 -192 0
-704 -187 -193 0
-704 -187 -194 0
-704 -187 -195 0
-704 -188 -192 0
-704 -188 -193 0
-704 -188 -194 0
-704 -188 -195 0
-704 -189 -192 0
-704 -189 -193 0
-704 -189 -194 0
-704 -189 -195 0
-704 238 0
-704 242 0
-705 205 0
-705 -198 -201 0
-705 -166 -171 0
-705 -166 -172 0
-705 -166 -173 0
-705 -166 -174 0
-705 -167 -171 0
-705 -167 -172 0
-705 -167 -173 0
-705 -167 -174 0
-705 -168 -171 0
-705 -168 -172 0
-705 -168 -173 0
-705 -168 -174 0
-705 -177 -182 0
-705 -177 -183 0
-705 -177 -184 0
-705 -177 -185 0
-705 -178 -182 0
-705 -178 -183 0
-705 -178 -184 0
-705 -178 -185 0
-705 -179 -182 0
-705 -179 -183 0
-705 -179 -184 0
-705 -179 -185 0
-705 -187 -192 0
-705 -187 -193 0
-705 -187 -194 0
-705 -187 -195 0
-705 -188 -192 0
-705 -188 -193 0
-705 -188 -194 0
-705 -188 -195 0
-705 -189 -192 0
-705 -189 -193 0
-705 -189 -194 0
-705 -189 -195 0
-705 -190 -192 0
-705 -190 -193 0
-705 -190 -194 0
-705 -190 -195 0
-705 239 0
-705 242 0
-706 205 0
-706 -199 -201 0
-706 -167 -171 0
-706 -167 -172 0
-706 -167 -173 0
-706 -167 -174 0
-706 -168 -171 0
-706 -168 -172 0
-706 -168 -173 0
-706 -168 -174 0
-706 -169 -171 0
-706 -169 -172 0
-706 -169 -173 0
-706 -169 -174 0
-706 -178 -182 0
-706 -178 -183 0
-706 -178 -184 0
-706 -178 -185 0
-706 -179 -182 0
-706 -179 -183 0
-706 -179 -184 0
-706 -179 -185 0
-706 -180 -182 0
-706 -180 -183 0
-706 -180 -184 0
-706 -180 -185 0
-706 -188 -192 0
-706 -188 -193 0
-706 -188 -194 0
-706 -188 -195 0
-706 -189 -192 0
-706 -189 -193 0
-706 -189 -194 0
-706 -189 -195 0
-706 -190 -192 0
-706 -190 -193 0
-706 -190 -194 0
-706 -190 -195 0
-706 -191 -192 0
-706 -191 -193 0
-706 -191 -194 0
-706 -191 -195 0
-706 240 0
-706 242 0
-707 205 0
-707 -200 -201 0
-707 -168 -171 0
-707 -168 -172 0
-707 -168 -173 0
-707 -168 -174 0
-707 -169 -171 0
-707 -169 -172 0
-707 -169 -173 0
-707 -169 -174 0
-707 -170 -171 0
-707 -170 -172 0
-707 -170 -173 0
-707 -170 -174 0
-707 -179 -182 0
-707 -179 -183 0
-707 -179 -184 0
-707 -179 -185 0
-707 -180 -182 0
-707 -180 -183 0
-707 -180 -184 0
-707 -180 -185 0
-707 -181 -182 0
-707 -181 -183 0
-707 -181 -184 0
-707 -181 -185 0
-707 -189 -192 0
-707 -189 -193 0
-707 -189 -194 0
-707 -189 -195 0
-707 -190 -192 0
-707 -190 -193 0
-707 -190 -194 0
-707 -190 -195 0
-707 -191 -192 0
-707 -191 -193 0
-707 -191 -194 0
-707 -191 -195 0
-707 241 0
-707 242 0
-708 216 0
-708 -226 0
-708 -206 -223 -213 0
-708 -206 -224 -214 0
-708 -206 -225 -215 0
-708 -218 0
-708 -219 0
-708 -220 0
-708 -221 0
-708 -222 0
-708 -223 -228 -234 0
-708 -223 -228 -235 0
-708 -223 -228 -236 0
-708 -224 -228 -235 0
-708 -224 -228 -236 0
-708 -225 -228 -236 0
-708 -223 -238 -243 0
-708 -223 -238 -244 0
-708 -223 -238 -245 0
-708 -224 -238 -244 0
-708 -224 -238 -245 0
-708 -225 -238 -245 0
-708 247 0
-708 -223 254 0
-708 -224 255 0
-708 -225 256 0
-708 -268 0
-709 216 0
-709 -226 0
-709 -207 -223 -213 0
-709 -207 -224 -214 0
-709 -207 -225 -215 0
-709 -217 0
-709 -219 0
-709 -220 0
-709 -221 0
-709 -222 0
-709 -223 -228 -234 0
-709 -223 -228 -235 0
-709 -223 -228 -236 0
-709 -224 -228 -235 0
-709 -224 -228 -236 0
-709 -225 -228 -236 0
-709 -223 -229 -234 0
-709 -223 -229 -235 0
-709 -223 -229 -236 0
-709 -224 -229 -235 0
-709 -224 -229 -236 0
-709 -225 -229 -236 0
-709 -223 -238 -243 0
-709 -223 -238 -244 0
-709 -223 -238 -245 0
-709 -224 -238 -244 0
-709 -224 -238 -245 0
-709 -225 -238 -245 0
-709 -223 -239 -243 0
-709 -223 -239 -244 0
-709 -223 -239 -245 0
-709 -224 -239 -244 0
-709 -224 -239 -245 0
-709 -225 -239 -245 0
-709 248 0
-709 -223 254 0
-709 -224 255 0
-709 -225 256 0
-709 -268 0
-710 216 0
-710 -226 0
-710 -208 -223 -213 0
-710 -208 -224 -214 0
-710 -208 -225 -215 0
-710 -217 0
-710 -218 0
-710 -220 0
-710 -221 0
-710 -222 0
-710 -223 -229 -234 0
-710 -223 -229 -235 0
-710 -223 -229 -236 0
-710 -224 -229 -235 0
-710 -224 -229 -236 0
-710 -225 -229 -236 0
-710 -223 -230 -234 0
-710 -223 -230 -235 0
-710 -223 -230 -236 0
-710 -224 -230 -235 0
-710 -224 -230 -236 0
-710 -225 -230 -236 0
-710 -223 -238 -243 0
-710 -223 -238 -244 0
-710 -223 -238 -245 0
-710 -224 -238 -244 0
-710 -224 -238 -245 0
-710 -225 -238 -245 0
-710 -223 -239 -243 0
-710 -223 -239 -244 0
-710 -223 -239 -245 0
-710 -224 -239 -244 0
-710 -224 -239 -245 0
-710 -225 -239 -245 0
-710 -223 -240 -243 0
-710 -223 -240 -244 0
-710 -223 -240 -245 0
-710 -224 -240 -244 0
-710 -224 -240 -245 0
-710 -225 -240 -245 0
-710 249 0
-710 -223 254 0
-710 -224 255 0
-710 -225 256 0
-710 -268 0
-711 216 0
-711 -226 0
-711 -209 -223 -213 0
-711 -209 -224 -214 0
-711 -209 -225 -215 0
-711 -217 0
-711 -218 0
-711 -219 0
-711 -221 0
-711 -222 0
-711 -223 -230 -234 0
-711 -223 -230 -235 0
-711 -223 -230 -236 0
-711 -224 -230 -235 0
-711 -224 -230 -236 0
-711 -225 -230 -236 0
-711 -223 -231 -234 0
-711 -223 -231 -235 0
-711 -223 -231 -236 0
-711 -224 -231 -235 0
-711 -224 -231 -236 0
-711 -225 -231 -236 0
-711 -223 -239 -243 0
-711 -223 -239 -244 0
-711 -223 -239 -245 0
-711 -224 -239 -244 0
-711 -224 -239 -245 0
-711 -225 -239 -245 0
-711 -223 -240 -243 0
-711 -223 -240 -244 0
-711 -223 -240 -245 0
-711 -224 -240 -244 0
-711 -224 -240 -245 0
-711 -225 -240 -245 0
-711 -223 -241 -243 0
-711 -223 -241 -244 0
-711 -223 -241 -245 0
-711 -224 -241 -244 0
-711 -224 -241 -245 0
-711 -225 -241 -245 0
-711 250 0
-711 -223 254 0
-711 -224 255 0
-711 -225 256 0
-711 -268 0
-712 216 0
-712 -226 0
-712 -210 -223 -213 0
-712 -210 -224 -214 0
-712 -210 -225 -215 0
-712 -217 0
-712 -218 0
-712 -219 0
-712 -220 0
-712 -222 0
-712 -223 -231 -234 0
-712 -223 -231 -235 0
-712 -223 -231 -236 0
-712 -224 -231 -235 0
-712 -224 -231 -236 0
-712 -225 -231 -236 0
-712 -223 -232 -234 0
-712 -223 -232 -235 0
-712 -223 -232 -236 0
-712 -224 -232 -235 0
-712 -224 -232 -236 0
-712 -225 -232 -236 0
-712 -223 -240 -243 0
-712 -223 -240 -244 0
-712 -223 -240 -245 0
-712 -224 -240 -244 0
-712 -224 -240 -245 0
-712 -225 -240 -245 0
-712 -223 -241 -243 0
-712 -223 -241 -244 0
-712 -223 -241 -245 0
-712 -224 -241 -244 0
-712 -224 -241 -245 0
-712 -225 -241 -245 0
-712 251 0
-712 -223 254 0
-712 -224 255 0
-712 -225 256 0
-712 -268 0
-713 216 0
-713 -226 0
-713 -211 -223 -213 0
-713 -211 -224 -214 0
-713 -211 -225 -215 0
-713 -217 0
-713 -218 0
-713 -219 0
-713 -220 0
-713 -221 0
-713 -223 -232 -234 0
-713 -223 -232 -235 0
-713 -223 -232 -236 0
-713 -224 -232 -235 0
-713 -224 -232 -236 0
-713 -225 -232 -236 0
-713 -223 -241 -243 0
-713 -223 -241 -244 0
-713 -223 -241 -245 0
-713 -224 -241 -244 0
-713 -224 -241 -245 0
-713 -225 -241 -245 0
-713 252 0
-713 -223 254 0
-713 -224 255 0
-713 -225 256 0
-713 -268 0
-714 216 0
-714 -236 0
-714 -206 -233 -213 0
-714 -206 -234 -214 0
-714 -206 -235 -215 0
-714 -229 0
-714 -230 0
-714 -231 0
-714 -232 0
-714 -233 -217 -224 0
-714 -233 -217 -225 0
-714 -233 -217 -226 0
-714 -234 -217 -225 0
-714 -234 -217 -226 0
-714 -235 -217 -226 0
-714 -233 -238 -243 0
-714 -233 -238 -244 0
-714 -233 -238 -245 0
-714 -234 -238 -244 0
-714 -234 -238 -245 0
-714 -235 -238 -245 0
-714 247 0
-714 -233 254 0
-714 -234 255 0
-714 -235 256 0
-714 -278 0
-715 216 0
-715 -236 0
-715 -207 -233 -213 0
-715 -207 -234 -214 0
-715 -207 -235 -215 0
-715 -230 0
-715 -231 0
-715 -232 0
-715 -233 -218 -224 0
-715 -233 -218 -225 0
-715 -233 -218 -226 0
-715 -234 -218 -225 0
-715 -234 -218 -226 0
-715 -235 -218 -226 0
-715 -233 -238 -243 0
-715 -233 -238 -244 0
-715 -233 -238 -245 0
-715 -234 -238 -244 0
-715 -234 -238 -245 0
-715 -235 -238 -245 0
-715 -233 -239 -243 0
-715 -233 -239 -244 0
-715 -233 -239 -245 0
-715 -234 -239 -244 0
-715 -234 -239 -245 0
-715 -235 -239 -245 0
-715 248 0
-715 -233 254 0
-715 -234 255 0
-715 -235 256 0
-715 -278 0
-716 216 0
-716 -236 0
-716 -208 -233 -213 0
-716 -208 -234 -214 0
-716 -208 -235 -215 0
-716 -228 0
-716 -231 0
-716 -232 0
-716 -233 -219 -224 0
-716 -233 -219 -225 0
-716 -233 -219 -226 0
-716 -234 -219 -225 0
-716 -234 -219 -226 0
-716 -235 -219 -226 0
-716 -233 -238 -243 0
-716 -233 -238 -244 0
-716 -233 -238 -245 0
-716 -234 -238 -244 0
-716 -234 -238 -245 0
-716 -235 -238 -245 0
-716 -233 -239 -243 0
-716 -233 -239 -244 0
-716 -233 -239 -245 0
-716 -234 -239 -244 0
-716 -234 -239 -245 0
-716 -235 -239 -245 0
-716 -233 -240 -243 0
-716 -233 -240 -244 0
-716 -233 -240 -245 0
-716 -234 -240 -244 0
-716 -234 -240 -245 0
-716 -235 -240 -245 0
-716 249 0
-716 -233 254 0
-716 -234 255 0
-716 -235 256 0
-716 -278 0
-717 216 0
-717 -236 0
-717 -209 -233 -213 0
-717 -209 -234 -214 0
-717 -209 -235 -215 0
-717 -228 0
-717 -229 0
-717 -232 0
-717 -233 -220 -224 0
-717 -233 -220 -225 0
-717 -233 -220 -226 0
-717 -234 -220 -225 0
-717 -234 -220 -226 0
-717 -235 -220 -226 0
-717 -233 -239 -243 0
-717 -233 -239 -244 0
-717 -233 -239 -245 0
-717 -234 -239 -244 0
-717 -234 -239 -245 0
-717 -235 -239 -245 0
-717 -233 -240 -243 0
-717 -233 -240 -244 0
-717 -233 -240 -245 0
-717 -234 -240 -244 0
-717 -234 -240 -245 0
-717 -235 -240 -245 0
-717 -233 -241 -243 0
-717 -233 -241 -244 0
-717 -233 -241 -245 0
-717 -234 -241 -244 0
-717 -234 -241 -245 0
-717 -235 -241 -245 0
-717 250 0
-717 -233 254 0
-717 -234 255 0
-717 -235 256 0
-717 -278 0
-718 216 0
-718 -236 0
-718 -210 -233 -213 0
-718 -210 -234 -214 0
-718 -210 -235 -215 0
-718 -228 0
-718 -229 0
-718 -230 0
-718 -233 -221 -224 0
-718 -233 -221 -225 0
-718 -233 -221 -226 0
-718 -234 -221 -225 0
-718 -234 -221 -226 0
-718 -235 -221 -226 0
-718 -233 -240 -243 0
-718 -233 -240 -244 0
-718 -233 -240 -245 0
-718 -234 -240 -244 0
-718 -234 -240 -245 0
-718 -235 -240 -245 0
-718 -233 -241 -243 0
-718 -233 -241 -244 0
-718 -233 -241 -245 0
-718 -234 -241 -244 0
-718 -234 -241 -245 0
-718 -235 -241 -245 0
-718 251 0
-718 -233 254 0
-718 -234 255 0
-718 -235 256 0
-718 -278 0
-719 216 0
-719 -236 0
-719 -211 -233 -213 0
-719 -211 -234 -214 0
-719 -211 -235 -215 0
-719 -228 0
-719 -229 0
-719 -230 0
-719 -231 0
-719 -233 -222 -224 0
-719 -233 -222 -225 0
-719 -233 -222 -226 0
-719 -234 -222 -225 0
-719 -234 -222 -226 0
-719 -235 -222 -226 0
-719 -233 -241 -243 0
-719 -233 -241 -244 0
-719 -233 -241 -245 0
-719 -234 -241 -244 0
-719 -234 -241 -245 0
-719 -235 -241 -245 0
-719 252 0
-719 -233 254 0
-719 -234 255 0
-719 -235 256 0
-719 -278 0
-720 216 0
-720 -245 0
-720 -206 -242 -213 0
-720 -206 -243 -214 0
-720 -206 -244 -215 0
-720 -239 0
-720 -240 0
-720 -241 0
-720 -242 -217 -224 0
-720 -242 -217 -225 0
-720 -242 -217 -226 0
-720 -243 -217 -225 0
-720 -243 -217 -226 0
-720 -244 -217 -226 0
-720 -242 -228 -234 0
-720 -242 -228 -235 0
-720 -242 -228 -236 0
-720 -243 -228 -235 0
-720 -243 -228 -236 0
-720 -244 -228 -236 0
-720 247 0
-720 -242 254 0
-720 -243 255 0
-720 -244 256 0
-720 -287 0
-721 216 0
-721 -245 0
-721 -207 -242 -213 0
-721 -207 -243 -214 0
-721 -207 -244 -215 0
-721 -240 0
-721 -241 0
-721 -242 -218 -224 0
-721 -242 -218 -225 0
-721 -242 -218 -226 0
-721 -243 -218 -225 0
-721 -243 -218 -226 0
-721 -244 -218 -226 0
-721 -242 -228 -234 0
-721 -242 -228 -235 0
-721 -242 -228 -236 0
-721 -243 -228 -235 0
-721 -243 -228 -236 0
-721 -244 -228 -236 0
-721 -242 -229 -234 0
-721 -242 -229 -235 0
-721 -242 -229 -236 0
-721 -243 -229 -235 0
-721 -243 -229 -236 0
-721 -244 -229 -236 0
-721 248 0
-721 -242 254 0
-721 -243 255 0
-721 -244 256 0
-721 -287 0
-722 216 0
-722 -245 0
-722 -208 -242 -213 0
-722 -208 -243 -214 0
-722 -208 -244 -215 0
-722 -241 0
-722 -242 -219 -224 0
-722 -242 -219 -225 0
-722 -242 -219 -226 0
-722 -243 -219 -225 0
-722 -243 -219 -226 0
-722 -244 -219 -226 0
-722 -242 -229 -234 0
-722 -242 -229 -235 0
-722 -242 -229 -236 0
-722 -243 -229 -235 0
-722 -243 -229 -236 0
-722 -244 -229 -236 0
-722 -242 -230 -234 0
-722 -242 -230 -235 0
-722 -242 -230 -236 0
-722 -243 -230 -235 0
-722 -243 -230 -236 0
-722 -244 -230 -236 0
-722 249 0
-722 -242 254 0
-722 -243 255 0
-722 -244 256 0
-722 -287 0
-723 216 0
-723 -245 0
-723 -209 -242 -213 0
-723 -209 -243 -214 0
-723 -209 -244 -215 0
-723 -238 0
-723 -242 -220 -224 0
-723 -242 -220 -225 0
-723 -242 -220 -226 0
-723 -243 -220 -225 0
-723 -243 -220 -226 0
-723 -244 -220 -226 0
-723 -242 -230 -234 0
-723 -242 -230 -235 0
-723 -242 -230 -236 0
-723 -243 -230 -235 0
-723 -243 -230 -236 0
-723 -244 -230 -236 0
-723 -242 -231 -234 0
-723 -242 -231 -235 0
-723 -242 -231 -236 0
-723 -243 -231 -235 0
-723 -243 -231 -236 0
-723 -244 -231 -236 0
-723 250 0
-723 -242 254 0
-723 -243 255 0
-723 -244 256 0
-723 -287 0
-724 216 0
-724 -245 0
-724 -210 -242 -213 0
-724 -210 -243 -214 0
-724 -210 -244 -215 0
-724 -238 0
-724 -239 0
-724 -242 -221 -224 0
-724 -242 -221 -225 0
-724 -242 -221 -226 0
-724 -243 -221 -225 0
-724 -243 -221 -226 0
-724 -244 -221 -226 0
-724 -242 -231 -234 0
-724 -242 -231 -235 0
-724 -242 -231 -236 0
-724 -243 -231 -235 0
-724 -243 -231 -236 0
-724 -244 -231 -236 0
-724 -242 -232 -234 0
-724 -242 -232 -235 0
-724 -242 -232 -236 0
-724 -243 -232 -235 0
-724 -243 -232 -236 0
-724 -244 -232 -236 0
-724 251 0
-724 -242 254 0
-724 -243 255 0
-724 -244 256 0
-724 -287 0
-725 216 0
-725 -245 0
-725 -211 -242 -213 0
-725 -211 -243 -214 0
-725 -211 -244 -215 0
-725 -238 0
-725 -239 0
-725 -240 0
-725 -242 -222 -224 0
-725 -242 -222 -225 0
-725 -242 -222 -226 0
-725 -243 -222 -225 0
-725 -243 -222 -226 0
-725 -244 -222 -226 0
-725 -242 -232 -234 0
-725 -242 -232 -235 0
-725 -242 -232 -236 0
-725 -243 -232 -235 0
-725 -243 -232 -236 0
-725 -244 -232 -236 0
-725 252 0
-725 -242 254 0
-725 -243 255 0
-725 -244 256 0
-725 -287 0
-726 216 0
-726 -206 -212 0
-726 -217 -223 0
-726 -217 -224 0
-726 -217 -225 0
-726 -217 -226 0
-726 -228 -233 0
-726 -228 -234 0
-726 -228 -235 0
-726 -228 -236 0
-726 -238 -242 0
-726 -238 -243 0
-726 -238 -244 0
-726 -238 -245 0
-726 247 0
-726 253 0
-727 216 0
-727 -207 -212 0
-727 -218 -223 0
-727 -218 -224 0
-727 -218 -225 0
-727 -218 -226 0
-727 -228 -233 0
-727 -228 -234 0
-727 -228 -235 0
-727 -228 -236 0
-727 -229 -233 0
-727 -229 -234 0
-727 -229 -235 0
-727 -229 -236 0
-727 -238 -242 0
-727 -238 -243 0
-727 -238 -244 0
-727 -238 -245 0
-727 -239 -242 0
-727 -239 -243 0
-727 -239 -244 0
-727 -239 -245 0
-727 248 0
-727 253 0
-728 216 0
-728 -208 -212 0
-728 -219 -223 0
-728 -219 -224 0
-728 -219 -225 0
-728 -219 -226 0
-728 -229 -233 0
-728 -229 -234 0
-728 -229 -235 0
-728 -229 -236 0
-728 -230 -233 0
-728 -230 -234 0
-728 -230 -235 0
-728 -230 -236 0
-728 -238 -242 0
-728 -238 -243 0
-728 -238 -244 0
-728 -238 -245 0
-728 -239 -242 0
-728 -239 -243 0
-728 -239 -244 0
-728 -239 -245 0
-728 -240 -242 0
-728 -240 -243 0
-728 -240 -244 0
-728 -240 -245 0
-728 249 0
-728 253 0
-729 216 0
-729 -209 -212 0
-729 -220 -223 0
-729 -220 -224 0
-729 -220 -225 0
-729 -220 -226 0
-729 -230 -233 0
-729 -230 -234 0
-729 -230 -235 0
-729 -230 -236 0
-729 -231 -233 0
-729 -231 -234 0
-729 -231 -235 0
-729 -231 -236 0
-729 -239 -242 0
-729 -239 -243 0
-729 -239 -244 0
-729 -239 -245 0
-729 -240 -242 0
-729 -240 -243 0
-729 -240 -244 0
-729 -240 -245 0
-729 -241 -242 0
-729 -241 -243 0
-729 -241 -244 0
-729 -241 -245 0
-729 250 0
-729 253 0
-730 216 0
-730 -210 -212 0
-730 -221 -223 0
-730 -221 -224 0
-730 -221 -225 0
-730 -221 -226 0
-730 -231 -233 0
-730 -231 -234 0
-730 -231 -235 0
-730 -231 -236 0
-730 -232 -233 0
-730 -232 -234 0
-730 -232 -235 0
-730 -232 -236 0
-730 -240 -242 0
-730 -240 -243 0
-730 -240 -244 0
-730 -240 -245 0
-730 -241 -242 0
-730 -241 -243 0
-730 -241 -244 0
-730 -241 -245 0
-730 251 0
-730 253 0
-731 216 0
-731 -211 -212 0
-731 -222 -223 0
-731 -222 -224 0
-731 -222 -225 0
-731 -222 -226 0
-731 -232 -233 0
-731 -232 -234 0
-731 -232 -235 0
-731 -232 -236 0
-731 -241 -242 0
-731 -241 -243 0
-731 -241 -244 0
-731 -241 -245 0
-731 252 0
-731 253 0
-732 227 0
-732 -215 0
-732 -217 -212 -224 0
-732 -217 -213 -225 0
-732 -217 -214 -226 0
-732 -207 0
-732 -208 0
-732 -209 0
-732 -210 0
-732 -211 0
-732 -212 -228 -234 0
-732 -212 -228 -235 0
-732 -212 -228 -236 0
-732 -213 -228 -235 0
-732 -213 -228 -236 0
-732 -214 -228 -236 0
-732 -212 -238 -243 0
-732 -212 -238 -244 0
-732 -212 -238 -245 0
-732 -213 -238 -244 0
-732 -213 -238 -245 0
-732 -214 -238 -245 0
-732 258 0
-732 -212 265 0
-732 -213 266 0
-732 -214 267 0
-732 -257 0
-733 227 0
-733 -215 0
-733 -218 -212 -224 0
-733 -218 -213 -225 0
-733 -218 -214 -226 0
-733 -206 0
-733 -208 0
-733 -209 0
-733 -210 0
-733 -211 0
-733 -212 -228 -234 0
-733 -212 -228 -235 0
-733 -212 -228 -236 0
-733 -213 -228 -235 0
-733 -213 -228 -236 0
-733 -214 -228 -236 0
-733 -212 -229 -234 0
-733 -212 -229 -235 0
-733 -212 -229 -236 0
-733 -213 -229 -235 0
-733 -213 -229 -236 0
-733 -214 -229 -236 0
-733 -212 -238 -243 0
-733 -212 -238 -244 0
-733 -212 -238 -245 0
-733 -213 -238 -244 0
-733 -213 -238 -245 0
-733 -214 -238 -245 0
-733 -212 -239 -243 0
-733 -212 -239 -244 0
-733 -212 -239 -245 0
-733 -213 -239 -244 0
-733 -213 -239 -245 0
-733 -214 -239 -245 0
-733 259 0
-733 -212 265 0
-733 -213 266 0
-733 -214 267 0
-733 -257 0
-734 227 0
-734 -215 0
-734 -219 -212 -224 0
-734 -219 -213 -225 0
-734 -219 -214 -226 0
-734 -206 0
-734 -207 0
-734 -209 0
-734 -210 0
-734 -211 0
-734 -212 -229 -234 0
-734 -212 -229 -235 0
-734 -212 -229 -236 0
-734 -213 -229 -235 0
-734 -213 -229 -236 0
-734 -214 -229 -236 0
-734 -212 -230 -234 0
-734 -212 -230 -235 0
-734 -212 -230 -236 0
-734 -213 -230 -235 0
-734 -213 -230 -236 0
-734 -214 -230 -236 0
-734 -212 -238 -243 0
-734 -212 -238 -244 0
-734 -212 -238 -245 0
-734 -213 -238 -244 0
-734 -213 -238 -245 0
-734 -214 -238 -245 0
-734 -212 -239 -243 0
-734 -212 -239 -244 0
-734 -212 -239 -245 0
-734 -213 -239 -244 0
-734 -213 -239 -245 0
-734 -214 -239 -245 0
-734 -212 -240 -243 0
-734 -212 -240 -244 0
-734 -212 -240 -245 0
-734 -213 -240 -244 0
-734 -213 -240 -245 0
-734 -214 -240 -245 0
-734 260 0
-734 -212 265 0
-734 -213 266 0
-734 -214 267 0
-734 -257 0
-735 227 0
-735 -215 0
-735 -220 -212 -224 0
-735 -220 -213 -225 0
-735 -220 -214 -226 0
-735 -206 0
-735 -207 0
-735 -208 0
-735 -210 0
-735 -211 0
-735 -212 -230 -234 0
-735 -212 -230 -235 0
-735 -212 -230 -236 0
-735 -213 -230 -235 0
-735 -213 -230 -236 0
-735 -214 -230 -236 0
-735 -212 -231 -234 0
-735 -212 -231 -235 0
-735 -212 -231 -236 0
-735 -213 -231 -235 0
-735 -213 -231 -236 0
-735 -214 -231 -236 0
-735 -212 -239 -243 0
-735 -212 -239 -244 0
-735 -212 -239 -245 0
-735 -213 -239 -244 0
-735 -213 -239 -245 0
-735 -214 -239 -245 0
-735 -212 -240 -243 0
-735 -212 -240 -244 0
-735 -212 -240 -245 0
-735 -213 -240 -244 0
-735 -213 -240 -245 0
-735 -214 -240 -245 0
-735 -212 -241 -243 0
-735 -212 -241 -244 0
-735 -212 -241 -245 0
-735 -213 -241 -244 0
-735 -213 -241 -245 0
-735 -214 -241 -245 0
-735 261 0
-735 -212 265 0
-735 -213 266 0
-735 -214 267 0
-735 -257 0
-736 227 0
-736 -215 0
-736 -221 -212 -224 0
-736 -221 -213 -225 0
-736 -221 -214 -226 0
-736 -206 0
-736 -207 0
-736 -208 0
-736 -209 0
-736 -211 0
-736 -212 -231 -234 0
-736 -212 -231 -235 0
-736 -212 -231 -236 0
-736 -213 -231 -235 0
-736 -213 -231 -236 0
-736 -214 -231 -236 0
-736 -212 -232 -234 0
-736 -212 -232 -235 0
-736 -212 -232 -236 0
-736 -213 -232 -235 0
-736 -213 -232 -236 0
-736 -214 -232 -236 0
-736 -212 -240 -243 0
-736 -212 -240 -244 0
-736 -212 -240 -245 0
-736 -213 -240 -244 0
-736 -213 -240 -245 0
-736 -214 -240 -245 0
-736 -212 -241 -243 0
-736 -212 -241 -244 0
-736 -212 -241 -245 0
-736 -213 -241 -244 0
-736 -213 -241 -245 0
-736 -214 -241 -245 0
-736 262 0
-736 -212 265 0
-736 -213 266 0
-736 -214 267 0
-736 -257 0
-737 227 0
-737 -215 0
-737 -222 -212 -224 0
-737 -222 -213 -225 0
-737 -222 -214 -226 0
-737 -206 0
-737 -207 0
-737 -208 0
-737 -209 0
-737 -210 0
-737 -212 -232 -234 0
-737 -212 -232 -235 0
-737 -212 -232 -236 0
-737 -213 -232 -235 0
-737 -213 -232 -236 0
-737 -214 -232 -236 0
-737 -212 -241 -243 0
-737 -212 -241 -244 0
-737 -212 -241 -245 0
-737 -213 -241 -244 0
-737 -213 -241 -245 0
-737 -214 -241 -245 0
-737 263 0
-737 -212 265 0
-737 -213 266 0
-737 -214 267 0
-737 -257 0
-738 227 0
-738 -236 0
-738 -217 -233 -224 0
-738 -217 -234 -225 0
-738 -217 -235 -226 0
-738 -229 0
-738 -230 0
-738 -231 0
-738 -232 0
-738 -233 -206 -213 0
-738 -233 -206 -214 0
-738 -233 -206 -215 0
-738 -234 -206 -214 0
-738 -234 -206 -215 0
-738 -235 -206 -215 0
-738 -233 -238 -243 0
-738 -233 -238 -244 0
-738 -233 -238 -245 0
-738 -234 -238 -244 0
-738 -234 -238 -245 0
-738 -235 -238 -245 0
-738 258 0
-738 -233 265 0
-738 -234 266 0
-738 -235 267 0
-738 -278 0
-739 227 0
-739 -236 0
-739 -218 -233 -224 0
-739 -218 -234 -225 0
-739 -218 -235 -226 0
-739 -230 0
-739 -231 0
-739 -232 0
-739 -233 -207 -213 0
-739 -233 -207 -214 0
-739 -233 -207 -215 0
-739 -234 -207 -214 0
-739 -234 -207 -215 0
-739 -235 -207 -215 0
-739 -233 -238 -243 0
-739 -233 -238 -244 0
-739 -233 -238 -245 0
-739 -234 -238 -244 0
-739 -234 -238 -245 0
-739 -235 -238 -245 0
-739 -233 -239 -243 0
-739 -233 -239 -244 0
-739 -233 -239 -245 0
-739 -234 -239 -244 0
-739 -234 -239 -245 0
-739 -235 -239 -245 0
-739 259 0
-739 -233 265 0
-739 -234 266 0
-739 -235 267 0
-739 -278 0
-740 227 0
-740 -236 0
-740 -219 -233 -224 0
-740 -219 -234 -225 0
-740 -219 -235 -226 0
-740 -228 0
-740 -231 0
-740 -232 0
-740 -233 -208 -213 0
-740 -233 -208 -214 0
-740 -233 -208 -215 0
-740 -234 -208 -214 0
-740 -234 -208 -215 0
-740 -235 -208 -215 0
-740 -233 -238 -243 0
-740 -233 -238 -244 0
-740 -233 -238 -245 0
-740 -234 -238 -244 0
-740 -234 -238 -245 0
-740 -235 -238 -245 0
-740 -233 -239 -243 0
-740 -233 -239 -244 0
-740 -233 -239 -245 0
-740 -234 -239 -244 0
-740 -234 -239 -245 0
-740 -235 -239 -245 0
-740 -233 -240 -243 0
-740 -233 -240 -244 0
-740 -233 -240 -245 0
-740 -234 -240 -244 0
-740 -234 -240 -245 0
-740 -235 -240 -245 0
-740 260 0
-740 -233 265 0
-740 -234 266 0
-740 -235 267 0
-740 -278 0
-741 227 0
-741 -236 0
-741 -220 -233 -224 0
-741 -220 -234 -225 0
-741 -220 -235 -226 0
-741 -228 0
-741 -229 0
-741 -232 0
-741 -233 -209 -213 0
-741 -233 -209 -214 0
-741 -233 -209 -215 0
-741 -234 -209 -214 0
-741 -234 -209 -215 0
-741 -235 -209 -215 0
-741 -233 -239 -243 0
-741 -233 -239 -244 0
-741 -233 -239 -245 0
-741 -234 -239 -244 0
-741 -234 -239 -245 0
-741 -235 -239 -245 0
-741 -233 -240 -243 0
-741 -233 -240 -244 0
-741 -233 -240 -245 0
-741 -234 -240 -244 0
-741 -234 -240 -245 0
-741 -235 -240 -245 0
-741 -233 -241 -243 0
-741 -233 -241 -244 0
-741 -233 -241 -245 0
-741 -234 -241 -244 0
-741 -234 -241 -245 0
-741 -235 -241 -245 0
-741 261 0
-741 -233 265 0
-741 -234 266 0
-741 -235 267 0
-741 -278 0
-742 227 0
-742 -236 0
-742 -221 -233 -224 0
-742 -221 -234 -225 0
-742 -221 -235 -226 0
-742 -228 0
-742 -229 0
-742 -230 0
-742 -233 -210 -213 0
-742 -233 -210 -214 0
-742 -233 -210 -215 0
-742 -234 -210 -214 0
-742 -234 -210 -215 0
-742 -235 -210 -215 0
-742 -233 -240 -243 0
-742 -233 -240 -244 0
-742 -233 -240 -245 0
-742 -234 -240 -244 0
-742 -234 -240 -245 0
-742 -235 -240 -245 0
-742 -233 -241 -243 0
-742 -233 -241 -244 0
-742 -233 -241 -245 0
-742 -234 -241 -244 0
-742 -234 -241 -245 0
-742 -235 -241 -245 0
-742 262 0
-742 -233 265 0
-742 -234 266 0
-742 -235 267 0
-742 -278 0
-743 227 0
-743 -236 0
-743 -222 -233 -224 0
-743 -222 -234 -225 0
-743 -222 -235 -226 0
-743 -228 0
-743 -229 0
-743 -230 0
-743 -231 0
-743 -233 -211 -213 0
-743 -233 -211 -214 0
-743 -233 -211 -215 0
-743 -234 -211 -214 0
-743 -234 -211 -215 0
-743 -235 -211 -215 0
-743 -233 -241 -243 0
-743 -233 -241 -244 0
-743 -233 -241 -245 0
-743 -234 -241 -244 0
-743 -234 -241 -245 0
-743 -235 -241 -245 0
-743 263 0
-743 -233 265 0
-743 -234 266 0
-743 -235 267 0
-743 -278 0
-744 227 0
-744 -245 0
-744 -217 -242 -224 0
-744 -217 -243 -225 0
-744 -217 -244 -226 0
-744 -239 0
-744 -240 0
-744 -241 0
-744 -242 -206 -213 0
-744 -242 -206 -214 0
-744 -242 -206 -215 0
-744 -243 -206 -214 0
-744 -243 -206 -215 0
-744 -244 -206 -215 0
-744 -242 -228 -234 0
-744 -242 -228 -235 0
-744 -242 -228 -236 0
-744 -243 -228 -235 0
-744 -243 -228 -236 0
-744 -244 -228 -236 0
-744 258 0
-744 -242 265 0
-744 -243 266 0
-744 -244 267 0
-744 -287 0
-745 227 0
-745 -245 0
-745 -218 -242 -224 0
-745 -218 -243 -225 0
-745 -218 -244 -226 0
-745 -240 0
-745 -241 0
-745 -242 -207 -213 0
-745 -242 -207 -214 0
-745 -242 -207 -215 0
-745 -243 -207 -214 0
-745 -243 -207 -215 0
-745 -244 -207 -215 0
-745 -242 -228 -234 0
-745 -242 -228 -235 0
-745 -242 -228 -236 0
-745 -243 -228 -235 0
-745 -243 -228 -236 0
-745 -244 -228 -236 0
-745 -242 -229 -234 0
-745 -242 -229 -235 0
-745 -242 -229 -236 0
-745 -243 -229 -235 0
-745 -243 -229 -236 0
-745 -244 -229 -236 0
-745 259 0
-745 -242 265 0
-745 -243 266 0
-745 -244 267 0
-745 -287 0
-746 227 0
-746 -245 0
-746 -219 -242 -224 0
-746 -219 -243 -225 0
-746 -219 -244 -226 0
-746 -241 0
-746 -242 -208 -213 0
-746 -242 -208 -214 0
-746 -242 -208 -215 0
-746 -243 -208 -214 0
-746 -243 -208 -215 0
-746 -244 -208 -215 0
-746 -242 -229 -234 0
-746 -242 -229 -235 0
-746 -242 -229 -236 0
-746 -243 -229 -235 0
-746 -243 -229 -236 0
-746 -244 -229 -236 0
-746 -242 -230 -234 0
-746 -242 -230 -235 0
-746 -242 -230 -236 0
-746 -243 -230 -235 0
-746 -243 -230 -236 0
-746 -244 -230 -236 0
-746 260 0
-746 -242 265 0
-746 -243 266 0
-746 -244 267 0
-746 -287 0
-747 227 0
-747 -245 0
-747 -220 -242 -224 0
-747 -220 -243 -225 0
-747 -220 -244 -226 0
-747 -238 0
-747 -242 -209 -213 0
-747 -242 -209 -214 0
-747 -242 -209 -215 0
-747 -243 -209 -214 0
-747 -243 -209 -215 0
-747 -244 -209 -215 0
-747 -242 -230 -234 0
-747 -242 -230 -235 0
-747 -242 -230 -236 0
-747 -243 -230 -235 0
-747 -243 -230 -236 0
-747 -244 -230 -236 0
-747 -242 -231 -234 0
-747 -242 -231 -235 0
-747 -242 -231 -236 0
-747 -243 -231 -235 0
-747 -243 -231 -236 0
-747 -244 -231 -236 0
-747 261 0
-747 -242 265 0
-747 -243 266 0
-747 -244 267 0
-747 -287 0
-748 227 0
-748 -245 0
-748 -221 -242 -224 0
-748 -221 -243 -225 0
-748 -221 -244 -226 0
-748 -238 0
-748 -239 0
-748 -242 -210 -213 0
-748 -242 -210 -214 0
-748 -242 -210 -215 0
-748 -243 -210 -214 0
-748 -243 -210 -215 0
-748 -244 -210 -215 0
-748 -242 -231 -234 0
-748 -242 -231 -235 0
-748 -242 -231 -236 0
-748 -243 -231 -235 0
-748 -243 -231 -236 0
-748 -244 -231 -236 0
-748 -242 -232 -234 0
-748 -242 -232 -235 0
-748 -242 -232 -236 0
-748 -243 -232 -235 0
-748 -243 -232 -236 0
-748 -244 -232 -236 0
-748 262 0
-748 -242 265 0
-748 -243 266 0
-748 -244 267 0
-748 -287 0
-749 227 0
-749 -245 0
-749 -222 -242 -224 0
-749 -222 -243 -225 0
-749 -222 -244 -226 0
-749 -238 0
-749 -239 0
-749 -240 0
-749 -242 -211 -213 0
-749 -242 -211 -214 0
-749 -242 -211 -215 0
-749 -243 -211 -214 0
-749 -243 -211 -215 0
-749 -244 -211 -215 0
-749 -242 -232 -234 0
-749 -242 -232 -235 0
-749 -242 -232 -236 0
-749 -243 -232 -235 0
-749 -243 -232 -236 0
-749 -244 -232 -236 0
-749 263 0
-749 -242 265 0
-749 -243 266 0
-749 -244 267 0
-749 -287 0
-750 227 0
-750 -217 -223 0
-750 -206 -212 0
-750 -206 -213 0
-750 -206 -214 0
-750 -206 -215 0
-750 -228 -233 0
-750 -228 -234 0
-750 -228 -235 0
-750 -228 -236 0
-750 -238 -242 0
-750 -238 -243 0
-750 -238 -244 0
-750 -238 -245 0
-750 258 0
-750 264 0
-751 227 0
-751 -218 -223 0
-751 -207 -212 0
-751 -207 -213 0
-751 -207 -214 0
-751 -207 -215 0
-751 -228 -233 0
-751 -228 -234 0
-751 -228 -235 0
-751 -228 -236 0
-751 -229 -233 0
-751 -229 -234 0
-751 -229 -235 0
-751 -229 -236 0
-751 -238 -242 0
-751 -238 -243 0
-751 -238 -244 0
-751 -238 -245 0
-751 -239 -242 0
-751 -239 -243 0
-751 -239 -244 0
-751 -239 -245 0
-751 259 0
-751 264 0
-752 227 0
-752 -219 -223 0
-752 -208 -212 0
-752 -208 -213 0
-752 -208 -214 0
-752 -208 -215 0
-752 -229 -233 0
-752 -229 -234 0
-752 -229 -235 0
-752 -229 -236 0
-752 -230 -233 0
-752 -230 -234 0
-752 -230 -235 0
-752 -230 -236 0
-752 -238 -242 0
-752 -238 -243 0
-752 -238 -244 0
-752 -238 -245 0
-752 -239 -242 0
-752 -239 -243 0
-752 -239 -244 0
-752 -239 -245 0
-752 -240 -242 0
-752 -240 -243 0
-752 -240 -244 0
-752 -240 -245 0
-752 260 0
-752 264 0
-753 227 0
-753 -220 -223 0
-753 -209 -212 0
-753 -209 -213 0
-753 -209 -214 0
-753 -209 -215 0
-753 -230 -233 0
-753 -230 -234 0
-753 -230 -235 0
-753 -230 -236 0
-753 -231 -233 0
-753 -231 -234 0
-753 -231 -235 0
-753 -231 -236 0
-753 -239 -242 0
-753 -239 -243 0
-753 -239 -244 0
-753 -239 -245 0
-753 -240 -242 0
-753 -240 -243 0
-753 -240 -244 0
-753 -240 -245 0
-753 -241 -242 0
-753 -241 -243 0
-753 -241 -244 0
-753 -241 -245 0
-753 261 0
-753 264 0
-754 227 0
-754 -221 -223 0
-754 -210 -212 0
-754 -210 -213 0
-754 -210 -214 0
-754 -210 -215 0
-754 -231 -233 0
-754 -231 -234 0
-754 -231 -235 0
-754 -231 -236 0
-754 -232 -233 0
-754 -232 -234 0
-754 -232 -235 0
-754 -232 -236 0
-754 -240 -242 0
-754 -240 -243 0
-754 -240 -244 0
-754 -240 -245 0
-754 -241 -242 0
-754 -241 -243 0
-754 -241 -244 0
-754 -241 -245 0
-754 262 0
-754 264 0
-755 227 0
-755 -222 -223 0
-755 -211 -212 0
-755 -211 -213 0
-755 -211 -214 0
-755 -211 -215 0
-755 -232 -233 0
-755 -232 -234 0
-755 -232 -235 0
-755 -232 -236 0
-755 -241 -242 0
-755 -241 -243 0
-755 -241 -244 0
-755 -241 -245 0
-755 263 0
-755 264 0
-756 237 0
-756 -215 0
-756 -228 -212 -234 0
-756 -228 -213 -235 0
-756 -228 -214 -236 0
-756 -208 0
-756 -209 0
-756 -210 0
-756 -211 0
-756 -212 -217 -224 0
-756 -212 -217 -225 0
-756 -212 -217 -226 0
-756 -213 -217 -225 0
-756 -213 -217 -226 0
-756 -214 -217 -226 0
-756 -212 -218 -224 0
-756 -212 -218 -225 0
-756 -212 -218 -226 0
-756 -213 -218 -225 0
-756 -213 -218 -226 0
-756 -214 -218 -226 0
-756 -212 -238 -243 0
-756 -212 -238 -244 0
-756 -212 -238 -245 0
-756 -213 -238 -244 0
-756 -213 -238 -245 0
-756 -214 -238 -245 0
-756 -212 -239 -243 0
-756 -212 -239 -244 0
-756 -212 -239 -245 0
-756 -213 -239 -244 0
-756 -213 -239 -245 0
-756 -214 -239 -245 0
-756 269 0
-756 -212 275 0
-756 -213 276 0
-756 -214 277 0
-756 -257 0
-757 237 0
-757 -215 0
-757 -229 -212 -234 0
-757 -229 -213 -235 0
-757 -229 -214 -236 0
-757 -206 0
-757 -209 0
-757 -210 0
-757 -211 0
-757 -212 -218 -224 0
-757 -212 -218 -225 0
-757 -212 -218 -226 0
-757 -213 -218 -225 0
-757 -213 -218 -226 0
-757 -214 -218 -226 0
-757 -212 -219 -224 0
-757 -212 -219 -225 0
-757 -212 -219 -226 0
-757 -213 -219 -225 0
-757 -213 -219 -226 0
-757 -214 -219 -226 0
-757 -212 -238 -243 0
-757 -212 -238 -244 0
-757 -212 -238 -245 0
-757 -213 -238 -244 0
-757 -213 -238 -245 0
-757 -214 -238 -245 0
-757 -212 -239 -243 0
-757 -212 -239 -244 0
-757 -212 -239 -245 0
-757 -213 -239 -244 0
-757 -213 -239 -245 0
-757 -214 -239 -245 0
-757 -212 -240 -243 0
-757 -212 -240 -244 0
-757 -212 -240 -245 0
-757 -213 -240 -244 0
-757 -213 -240 -245 0
-757 -214 -240 -245 0
-757 270 0
-757 -212 275 0
-757 -213 276 0
-757 -214 277 0
-757 -257 0
-758 237 0
-758 -215 0
-758 -230 -212 -234 0
-758 -230 -213 -235 0
-758 -230 -214 -236 0
-758 -206 0
-758 -207 0
-758 -210 0
-758 -211 0
-758 -212 -219 -224 0
-758 -212 -219 -225 0
-758 -212 -219 -226 0
-758 -213 -219 -225 0
-758 -213 -219 -226 0
-758 -214 -219 -226 0
-758 -212 -220 -224 0
-758 -212 -220 -225 0
-758 -212 -220 -226 0
-758 -213 -220 -225 0
-758 -213 -220 -226 0
-758 -214 -220 -226 0
-758 -212 -238 -243 0
-758 -212 -238 -244 0
-758 -212 -238 -245 0
-758 -213 -238 -244 0
-758 -213 -238 -245 0
-758 -214 -238 -245 0
-758 -212 -239 -243 0
-758 -212 -239 -244 0
-758 -212 -239 -245 0
-758 -213 -239 -244 0
-758 -213 -239 -245 0
-758 -214 -239 -245 0
-758 -212 -240 -243 0
-758 -212 -240 -244 0
-758 -212 -240 -245 0
-758 -213 -240 -244 0
-758 -213 -240 -245 0
-758 -214 -240 -245 0
-758 -212 -241 -243 0
-758 -212 -241 -244 0
-758 -212 -241 -245 0
-758 -213 -241 -244 0
-758 -213 -241 -245 0
-758 -214 -241 -245 0
-758 271 0
-758 -212 275 0
-758 -213 276 0
-758 -214 277 0
-758 -257 0
-759 237 0
-759 -215 0
-759 -231 -212 -234 0
-759 -231 -213 -235 0
-759 -231 -214 -236 0
-759 -206 0
-759 -207 0
-759 -208 0
-759 -211 0
-759 -212 -220 -224 0
-759 -212 -220 -225 0
-759 -212 -220 -226 0
-759 -213 -220 -225 0
-759 -213 -220 -226 0
-759 -214 -220 -226 0
-759 -212 -221 -224 0
-759 -212 -221 -225 0
-759 -212 -221 -226 0
-759 -213 -221 -225 0
-759 -213 -221 -226 0
-759 -214 -221 -226 0
-759 -212 -239 -243 0
-759 -212 -239 -244 0
-759 -212 -239 -245 0
-759 -213 -239 -244 0
-759 -213 -239 -245 0
-759 -214 -239 -245 0
-759 -212 -240 -243 0
-759 -212 -240 -244 0
-759 -212 -240 -245 0
-759 -213 -240 -244 0
-759 -213 -240 -245 0
-759 -214 -240 -245 0
-759 -212 -241 -243 0
-759 -212 -241 -244 0
-759 -212 -241 -245 0
-759 -213 -241 -244 0
-759 -213 -241 -245 0
-759 -214 -241 -245 0
-759 272 0
-759 -212 275 0
-759 -213 276 0
-759 -214 277 0
-759 -257 0
-760 237 0
-760 -215 0
-760 -232 -212 -234 0
-760 -232 -213 -235 0
-760 -232 -214 -236 0
-760 -206 0
-760 -207 0
-760 -208 0
-760 -209 0
-760 -212 -221 -224 0
-760 -212 -221 -225 0
-760 -212 -221 -226 0
-760 -213 -221 -225 0
-760 -213 -221 -226 0
-760 -214 -221 -226 0
-760 -212 -222 -224 0
-760 -212 -222 -225 0
-760 -212 -222 -226 0
-760 -213 -222 -225 0
-760 -213 -222 -226 0
-760 -214 -222 -226 0
-760 -212 -240 -243 0
-760 -212 -240 -244 0
-760 -212 -240 -245 0
-760 -213 -240 -244 0
-760 -213 -240 -245 0
-760 -214 -240 -245 0
-760 -212 -241 -243 0
-760 -212 -241 -244 0
-760 -212 -241 -245 0
-760 -213 -241 -244 0
-760 -213 -241 -245 0
-760 -214 -241 -245 0
-760 273 0
-760 -212 275 0
-760 -213 276 0
-760 -214 277 0
-760 -257 0
-761 237 0
-761 -226 0
-761 -228 -223 -234 0
-761 -228 -224 -235 0
-761 -228 -225 -236 0
-761 -219 0
-761 -220 0
-761 -221 0
-761 -222 0
-761 -223 -206 -213 0
-761 -223 -206 -214 0
-761 -223 -206 -215 0
-761 -224 -206 -214 0
-761 -224 -206 -215 0
-761 -225 -206 -215 0
-761 -223 -207 -213 0
-761 -223 -207 -214 0
-761 -223 -207 -215 0
-761 -224 -207 -214 0
-761 -224 -207 -215 0
-761 -225 -207 -215 0
-761 -223 -238 -243 0
-761 -223 -238 -244 0
-761 -223 -238 -245 0
-761 -224 -238 -244 0
-761 -224 -238 -245 0
-761 -225 -238 -245 0
-761 -223 -239 -243 0
-761 -223 -239 -244 0
-761 -223 -239 -245 0
-761 -224 -239 -244 0
-761 -224 -239 -245 0
-761 -225 -239 -245 0
-761 269 0
-761 -223 275 0
-761 -224 276 0
-761 -225 277 0
-761 -268 0
-762 237 0
-762 -226 0
-762 -229 -223 -234 0
-762 -229 -224 -235 0
-762 -229 -225 -236 0
-762 -217 0
-762 -220 0
-762 -221 0
-762 -222 0
-762 -223 -207 -213 0
-762 -223 -207 -214 0
-762 -223 -207 -215 0
-762 -224 -207 -214 0
-762 -224 -207 -215 0
-762 -225 -207 -215 0
-762 -223 -208 -213 0
-762 -223 -208 -214 0
-762 -223 -208 -215 0
-762 -224 -208 -214 0
-762 -224 -208 -215 0
-762 -225 -208 -215 0
-762 -223 -238 -243 0
-762 -223 -238 -244 0
-762 -223 -238 -245 0
-762 -224 -238 -244 0
-762 -224 -238 -245 0
-762 -225 -238 -245 0
-762 -223 -239 -243 0
-762 -223 -239 -244 0
-762 -223 -239 -245 0
-762 -224 -239 -244 0
-762 -224 -239 -245 0
-762 -225 -239 -245 0
-762 -223 -240 -243 0
-762 -223 -240 -244 0
-762 -223 -240 -245 0
-762 -224 -240 -244 0
-762 -224 -240 -245 0
-762 -225 -240 -245 0
-762 270 0
-762 -223 275 0
-762 -224 276 0
-762 -225 277 0
-762 -268 0
-763 237 0
-763 -226 0
-763 -230 -223 -234 0
-763 -230 -224 -235 0
-763 -230 -225 -236 0
-763 -217 0
-763 -218 0
-763 -221 0
-763 -222 0
-763 -223 -208 -213 0
-763 -223 -208 -214 0
-763 -223 -208 -215 0
-763 -224 -208 -214 0
-763 -224 -208 -215 0
-763 -225 -208 -215 0
-763 -223 -209 -213 0
-763 -223 -209 -214 0
-763 -223 -209 -215 0
-763 -224 -209 -214 0
-763 -224 -209 -215 0
-763 -225 -209 -215 0
-763 -223 -238 -243 0
-763 -223 -238 -244 0
-763 -223 -238 -245 0
-763 -224 -238 -244 0
-763 -224 -238 -245 0
-763 -225 -238 -245 0
-763 -223 -239 -243 0
-763 -223 -239 -244 0
-763 -223 -239 -245 0
-763 -224 -239 -244 0
-763 -224 -239 -245 0
-763 -225 -239 -245 0
-763 -223 -240 -243 0
-763 -223 -240 -244 0
-763 -223 -240 -245 0
-763 -224 -240 -244 0
-763 -224 -240 -245 0
-763 -225 -240 -245 0
-763 -223 -241 -243 0
-763 -223 -241 -244 0
-763 -223 -241 -245 0
-763 -224 -241 -244 0
-763 -224 -241 -245 0
-763 -225 -241 -245 0
-763 271 0
-763 -223 275 0
-763 -224 276 0
-763 -225 277 0
-763 -268 0
-764 237 0
-764 -226 0
-764 -231 -223 -234 0
-764 -231 -224 -235 0
-764 -231 -225 -236 0
-764 -217 0
-764 -218 0
-764 -219 0
-764 -222 0
-764 -223 -209 -213 0
-764 -223 -209 -214 0
-764 -223 -209 -215 0
-764 -224 -209 -214 0
-764 -224 -209 -215 0
-764 -225 -209 -215 0
-764 -223 -210 -213 0
-764 -223 -210 -214 0
-764 -223 -210 -215 0
-764 -224 -210 -214 0
-764 -224 -210 -215 0
-764 -225 -210 -215 0
-764 -223 -239 -243 0
-764 -223 -239 -244 0
-764 -223 -239 -245 0
-764 -224 -239 -244 0
-764 -224 -239 -245 0
-764 -225 -239 -245 0
-764 -223 -240 -243 0
-764 -223 -240 -244 0
-764 -223 -240 -245 0
-764 -224 -240 -244 0
-764 -224 -240 -245 0
-764 -225 -240 -245 0
-764 -223 -241 -243 0
-764 -223 -241 -244 0
-764 -223 -241 -245 0
-764 -224 -241 -244 0
-764 -224 -241 -245 0
-764 -225 -241 -245 0
-764 272 0
-764 -223 275 0
-764 -224 276 0
-764 -225 277 0
-764 -268 0
-765 237 0
-765 -226 0
-765 -232 -223 -234 0
-765 -232 -224 -235 0
-765 -232 -225 -236 0
-765 -217 0
-765 -218 0
-765 -219 0
-765 -220 0
-765 -223 -210 -213 0
-765 -223 -210 -214 0
-765 -223 -210 -215 0
-765 -224 -210 -214 0
-765 -224 -210 -215 0
-765 -225 -210 -215 0
-765 -223 -211 -213 0
-765 -223 -211 -214 0
-765 -223 -211 -215 0
-765 -224 -211 -214 0
-765 -224 -211 -215 0
-765 -225 -211 -215 0
-765 -223 -240 -243 0
-765 -223 -240 -244 0
-765 -223 -240 -245 0
-765 -224 -240 -244 0
-765 -224 -240 -245 0
-765 -225 -240 -245 0
-765 -223 -241 -243 0
-765 -223 -241 -244 0
-765 -223 -241 -245 0
-765 -224 -241 -244 0
-765 -224 -241 -245 0
-765 -225 -241 -245 0
-765 273 0
-765 -223 275 0
-765 -224 276 0
-765 -225 277 0
-765 -268 0
-766 237 0
-766 -245 0
-766 -228 -242 -234 0
-766 -228 -243 -235 0
-766 -228 -244 -236 0
-766 -240 0
-766 -241 0
-766 -242 -206 -213 0
-766 -242 -206 -214 0
-766 -242 -206 -215 0
-766 -243 -206 -214 0
-766 -243 -206 -215 0
-766 -244 -206 -215 0
-766 -242 -207 -213 0
-766 -242 -207 -214 0
-766 -242 -207 -215 0
-766 -243 -207 -214 0
-766 -243 -207 -215 0
-766 -244 -207 -215 0
-766 -242 -217 -224 0
-766 -242 -217 -225 0
-766 -242 -217 -226 0
-766 -243 -217 -225 0
-766 -243 -217 -226 0
-766 -244 -217 -226 0
-766 -242 -218 -224 0
-766 -242 -218 -225 0
-766 -242 -218 -226 0
-766 -243 -218 -225 0
-766 -243 -218 -226 0
-766 -244 -218 -226 0
-766 269 0
-766 -242 275 0
-766 -243 276 0
-766 -244 277 0
-766 -287 0
-767 237 0
-767 -245 0
-767 -229 -242 -234 0
-767 -229 -243 -235 0
-767 -229 -244 -236 0
-767 -241 0
-767 -242 -207 -213 0
-767 -242 -207 -214 0
-767 -242 -207 -215 0
-767 -243 -207 -214 0
-767 -243 -207 -215 0
-767 -244 -207 -215 0
-767 -242 -208 -213 0
-767 -242 -208 -214 0
-767 -242 -208 -215 0
-767 -243 -208 -214 0
-767 -243 -208 -215 0
-767 -244 -208 -215 0
-767 -242 -218 -224 0
-767 -242 -218 -225 0
-767 -242 -218 -226 0
-767 -243 -218 -225 0
-767 -243 -218 -226 0
-767 -244 -218 -226 0
-767 -242 -219 -224 0
-767 -242 -219 -225 0
-767 -242 -219 -226 0
-767 -243 -219 -225 0
-767 -243 -219 -226 0
-767 -244 -219 -226 0
-767 270 0
-767 -242 275 0
-767 -243 276 0
-767 -244 277 0
-767 -287 0
-768 237 0
-768 -245 0
-768 -230 -242 -234 0
-768 -230 -243 -235 0
-768 -230 -244 -236 0
-768 -242 -208 -213 0
-768 -242 -208 -214 0
-768 -242 -208 -215 0
-768 -243 -208 -214 0
-768 -243 -208 -215 0
-768 -244 -208 -215 0
-768 -242 -209 -213 0
-768 -242 -209 -214 0
-768 -242 -209 -215 0
-768 -243 -209 -214 0
-768 -243 -209 -215 0
-768 -244 -209 -215 0
-768 -242 -219 -224 0
-768 -242 -219 -225 0
-768 -242 -219 -226 0
-768 -243 -219 -225 0
-768 -243 -219 -226 0
-768 -244 -219 -226 0
-768 -242 -220 -224 0
-768 -242 -220 -225 0
-768 -242 -220 -226 0
-768 -243 -220 -225 0
-768 -243 -220 -226 0
-768 -244 -220 -226 0
-768 271 0
-768 -242 275 0
-768 -243 276 0
-768 -244 277 0
-768 -287 0
-769 237 0
-769 -245 0
-769 -231 -242 -234 0
-769 -231 -243 -235 0
-769 -231 -244 -236 0
-769 -238 0
-769 -242 -209 -213 0
-769 -242 -209 -214 0
-769 -242 -209 -215 0
-769 -243 -209 -214 0
-769 -243 -209 -215 0
-769 -244 -209 -215 0
-769 -242 -210 -213 0
-769 -242 -210 -214 0
-769 -242 -210 -215 0
-769 -243 -210 -214 0
-769 -243 -210 -215 0
-769 -244 -210 -215 0
-769 -242 -220 -224 0
-769 -242 -220 -225 0
-769 -242 -220 -226 0
-769 -243 -220 -225 0
-769 -243 -220 -226 0
-769 -244 -220 -226 0
-769 -242 -221 -224 0
-769 -242 -221 -225 0
-769 -242 -221 -226 0
-769 -243 -221 -225 0
-769 -243 -221 -226 0
-769 -244 -221 -226 0
-769 272 0
-769 -242 275 0
-769 -243 276 0
-769 -244 277 0
-769 -287 0
-770 237 0
-770 -245 0
-770 -232 -242 -234 0
-770 -232 -243 -235 0
-770 -232 -244 -236 0
-770 -238 0
-770 -239 0
-770 -242 -210 -213 0
-770 -242 -210 -214 0
-770 -242 -210 -215 0
-770 -243 -210 -214 0
-770 -243 -210 -215 0
-770 -244 -210 -215 0
-770 -242 -211 -213 0
-770 -242 -211 -214 0
-770 -242 -211 -215 0
-770 -243 -211 -214 0
-770 -243 -211 -215 0
-770 -244 -211 -215 0
-770 -242 -221 -224 0
-770 -242 -221 -225 0
-770 -242 -221 -226 0
-770 -243 -221 -225 0
-770 -243 -221 -226 0
-770 -244 -221 -226 0
-770 -242 -222 -224 0
-770 -242 -222 -225 0
-770 -242 -222 -226 0
-770 -243 -222 -225 0
-770 -243 -222 -226 0
-770 -244 -222 -226 0
-770 273 0
-770 -242 275 0
-770 -243 276 0
-770 -244 277 0
-770 -287 0
-771 237 0
-771 -228 -233 0
-771 -206 -212 0
-771 -206 -213 0
-771 -206 -214 0
-771 -206 -215 0
-771 -207 -212 0
-771 -207 -213 0
-771 -207 -214 0
-771 -207 -215 0
-771 -217 -223 0
-771 -217 -224 0
-771 -217 -225 0
-771 -217 -226 0
-771 -218 -223 0
-771 -218 -224 0
-771 -218 -225 0
-771 -218 -226 0
-771 -238 -242 0
-771 -238 -243 0
-771 -238 -244 0
-771 -238 -245 0
-771 -239 -242 0
-771 -239 -243 0
-771 -239 -244 0
-771 -239 -245 0
-771 269 0
-771 274 0
-772 237 0
-772 -229 -233 0
-772 -207 -212 0
-772 -207 -213 0
-772 -207 -214 0
-772 -207 -215 0
-772 -208 -212 0
-772 -208 -213 0
-772 -208 -214 0
-772 -208 -215 0
-772 -218 -223 0
-772 -218 -224 0
-772 -218 -225 0
-772 -218 -226 0
-772 -219 -223 0
-772 -219 -224 0
-772 -219 -225 0
-772 -219 -226 0
-772 -238 -242 0
-772 -238 -243 0
-772 -238 -244 0
-772 -238 -245 0
-772 -239 -242 0
-772 -239 -243 0
-772 -239 -244 0
-772 -239 -245 0
-772 -240 -242 0
-772 -240 -243 0
-772 -240 -244 0
-772 -240 -245 0
-772 270 0
-772 274 0
-773 237 0
-773 -230 -233 0
-773 -208 -212 0
-773 -208 -213 0
-773 -208 -214 0
-773 -208 -215 0
-773 -209 -212 0
-773 -209 -213 0
-773 -209 -214 0
-773 -209 -215 0
-773 -219 -223 0
-773 -219 -224 0
-773 -219 -225 0
-773 -219 -226 0
-773 -220 -223 0
-773 -220 -224 0
-773 -220 -225 0
-773 -220 -226 0
-773 -238 -242 0
-773 -238 -243 0
-773 -238 -244 0
-773 -238 -245 0
-773 -239 -242 0
-773 -239 -243 0
-773 -239 -244 0
-773 -239 -245 0
-773 -240 -242 0
-773 -240 -243 0
-773 -240 -244 0
-773 -240 -245 0
-773 -241 -242 0
-773 -241 -243 0
-773 -241 -244 0
-773 -241 -245 0
-773 271 0
-773 274 0
-774 237 0
-774 -231 -233 0
-774 -209 -212 0
-774 -209 -213 0
-774 -209 -214 0
-774 -209 -215 0
-774 -210 -212 0
-774 -210 -213 0
-774 -210 -214 0
-774 -210 -215 0
-774 -220 -223 0
-774 -220 -224 0
-774 -220 -225 0
-774 -220 -226 0
-774 -221 -223 0
-774 -221 -224 0
-774 -221 -225 0
-774 -221 -226 0
-774 -239 -242 0
-774 -239 -243 0
-774 -239 -244 0
-774 -239 -245 0
-774 -240 -242 0
-774 -240 -243 0
-774 -240 -244 0
-774 -240 -245 0
-774 -241 -242 0
-774 -241 -243 0
-774 -241 -244 0
-774 -241 -245 0
-774 272 0
-774 274 0
-775 237 0
-775 -232 -233 0
-775 -210 -212 0
-775 -210 -213 0
-775 -210 -214 0
-775 -210 -215 0
-775 -211 -212 0
-775 -211 -213 0
-775 -211 -214 0
-775 -211 -215 0
-775 -221 -223 0
-775 -221 -224 0
-775 -221 -225 0
-775 -221 -226 0
-775 -222 -223 0
-775 -222 -224 0
-775 -222 -225 0
-775 -222 -226 0
-775 -240 -242 0
-775 -240 -243 0
-775 -240 -244 0
-775 -240 -245 0
-775 -241 -242 0
-775 -241 -243 0
-775 -241 -244 0
-775 -241 -245 0
-775 273 0
-775 274 0
-776 246 0
-776 -215 0
-776 -238 -212 -243 0
-776 -238 -213 -244 0
-776 -238 -214 -245 0
-776 -209 0
-776 -210 0
-776 -211 0
-776 -212 -217 -224 0
-776 -212 -217 -225 0
-776 -212 -217 -226 0
-776 -213 -217 -225 0
-776 -213 -217 -226 0
-776 -214 -217 -226 0
-776 -212 -218 -224 0
-776 -212 -218 -225 0
-776 -212 -218 -226 0
-776 -213 -218 -225 0
-776 -213 -218 -226 0
-776 -214 -218 -226 0
-776 -212 -219 -224 0
-776 -212 -219 -225 0
-776 -212 -219 -226 0
-776 -213 -219 -225 0
-776 -213 -219 -226 0
-776 -214 -219 -226 0
-776 -212 -228 -234 0
-776 -212 -228 -235 0
-776 -212 -228 -236 0
-776 -213 -228 -235 0
-776 -213 -228 -236 0
-776 -214 -228 -236 0
-776 -212 -229 -234 0
-776 -212 -229 -235 0
-776 -212 -229 -236 0
-776 -213 -229 -235 0
-776 -213 -229 -236 0
-776 -214 -229 -236 0
-776 -212 -230 -234 0
-776 -212 -230 -235 0
-776 -212 -230 -236 0
-776 -213 -230 -235 0
-776 -213 -230 -236 0
-776 -214 -230 -236 0
-776 279 0
-776 -212 284 0
-776 -213 285 0
-776 -214 286 0
-776 -257 0
-777 246 0
-777 -215 0
-777 -239 -212 -243 0
-777 -239 -213 -244 0
-777 -239 -214 -245 0
-777 -206 0
-777 -210 0
-777 -211 0
-777 -212 -218 -224 0
-777 -212 -218 -225 0
-777 -212 -218 -226 0
-777 -213 -218 -225 0
-777 -213 -218 -226 0
-777 -214 -218 -226 0
-777 -212 -219 -224 0
-777 -212 -219 -225 0
-777 -212 -219 -226 0
-777 -213 -219 -225 0
-777 -213 -219 -226 0
-777 -214 -219 -226 0
-777 -212 -220 -224 0
-777 -212 -220 -225 0
-777 -212 -220 -226 0
-777 -213 -220 -225 0
-777 -213 -220 -226 0
-777 -214 -220 -226 0
-777 -212 -228 -234 0
-777 -212 -228 -235 0
-777 -212 -228 -236 0
-777 -213 -228 -235 0
-777 -213 -228 -236 0
-777 -214 -228 -236 0
-777 -212 -229 -234 0
-777 -212 -229 -235 0
-777 -212 -229 -236 0
-777 -213 -229 -235 0
-777 -213 -229 -236 0
-777 -214 -229 -236 0
-777 -212 -230 -234 0
-777 -212 -230 -235 0
-777 -212 -230 -236 0
-777 -213 -230 -235 0
-777 -213 -230 -236 0
-777 -214 -230 -236 0
-777 -212 -231 -234 0
-777 -212 -231 -235 0
-777 -212 -231 -236 0
-777 -213 -231 -235 0
-777 -213 -231 -236 0
-777 -214 -231 -236 0
-777 280 0
-777 -212 284 0
-777 -213 285 0
-777 -214 286 0
-777 -257 0
-778 246 0
-778 -215 0
-778 -240 -212 -243 0
-778 -240 -213 -244 0
-778 -240 -214 -245 0
-778 -206 0
-778 -207 0
-778 -211 0
-778 -212 -219 -224 0
-778 -212 -219 -225 0
-778 -212 -219 -226 0
-778 -213 -219 -225 0
-778 -213 -219 -226 0
-778 -214 -219 -226 0
-778 -212 -220 -224 0
-778 -212 -220 -225 0
-778 -212 -220 -226 0
-778 -213 -220 -225 0
-778 -213 -220 -226 0
-778 -214 -220 -226 0
-778 -212 -221 -224 0
-778 -212 -221 -225 0
-778 -212 -221 -226 0
-778 -213 -221 -225 0
-778 -213 -221 -226 0
-778 -214 -221 -226 0
-778 -212 -229 -234 0
-778 -212 -229 -235 0
-778 -212 -229 -236 0
-778 -213 -229 -235 0
-778 -213 -229 -236 0
-778 -214 -229 -236 0
-778 -212 -230 -234 0
-778 -212 -230 -235 0
-778 -212 -230 -236 0
-778 -213 -230 -235 0
-778 -213 -230 -236 0
-778 -214 -230 -236 0
-778 -212 -231 -234 0
-778 -212 -231 -235 0
-778 -212 -231 -236 0
-778 -213 -231 -235 0
-778 -213 -231 -236 0
-778 -214 -231 -236 0
-778 -212 -232 -234 0
-778 -212 -232 -235 0
-778 -212 -232 -236 0
-778 -213 -232 -235 0
-778 -213 -232 -236 0
-778 -214 -232 -236 0
-778 281 0
-778 -212 284 0
-778 -213 285 0
-778 -214 286 0
-778 -257 0
-779 246 0
-779 -215 0
-779 -241 -212 -243 0
-779 -241 -213 -244 0
-779 -241 -214 -245 0
-779 -206 0
-779 -207 0
-779 -208 0
-779 -212 -220 -224 0
-779 -212 -220 -225 0
-779 -212 -220 -226 0
-779 -213 -220 -225 0
-779 -213 -220 -226 0
-779 -214 -220 -226 0
-779 -212 -221 -224 0
-779 -212 -221 -225 0
-779 -212 -221 -226 0
-779 -213 -221 -225 0
-779 -213 -221 -226 0
-779 -214 -221 -226 0
-779 -212 -222 -224 0
-779 -212 -222 -225 0
-779 -212 -222 -226 0
-779 -213 -222 -225 0
-779 -213 -222 -226 0
-779 -214 -222 -226 0
-779 -212 -230 -234 0
-779 -212 -230 -235 0
-779 -212 -230 -236 0
-779 -213 -230 -235 0
-779 -213 -230 -236 0
-779 -214 -230 -236 0
-779 -212 -231 -234 0
-779 -212 -231 -235 0
-779 -212 -231 -236 0
-779 -213 -231 -235 0
-779 -213 -231 -236 0
-779 -214 -231 -236 0
-779 -212 -232 -234 0
-779 -212 -232 -235 0
-779 -212 -232 -236 0
-779 -213 -232 -235 0
-779 -213 -232 -236 0
-779 -214 -232 -236 0
-779 282 0
-779 -212 284 0
-779 -213 285 0
-779 -214 286 0
-779 -257 0
-780 246 0
-780 -226 0
-780 -238 -223 -243 0
-780 -238 -224 -244 0
-780 -238 -225 -245 0
-780 -220 0
-780 -221 0
-780 -222 0
-780 -223 -206 -213 0
-780 -223 -206 -214 0
-780 -223 -206 -215 0
-780 -224 -206 -214 0
-780 -224 -206 -215 0
-780 -225 -206 -215 0
-780 -223 -207 -213 0
-780 -223 -207 -214 0
-780 -223 -207 -215 0
-780 -224 -207 -214 0
-780 -224 -207 -215 0
-780 -225 -207 -215 0
-780 -223 -208 -213 0
-780 -223 -208 -214 0
-780 -223 -208 -215 0
-780 -224 -208 -214 0
-780 -224 -208 -215 0
-780 -225 -208 -215 0
-780 -223 -228 -234 0
-780 -223 -228 -235 0
-780 -223 -228 -236 0
-780 -224 -228 -235 0
-780 -224 -228 -236 0
-780 -225 -228 -236 0
-780 -223 -229 -234 0
-780 -223 -229 -235 0
-780 -223 -229 -236 0
-780 -224 -229 -235 0
-780 -224 -229 -236 0
-780 -225 -229 -236 0
-780 -223 -230 -234 0
-780 -223 -230 -235 0
-780 -223 -230 -236 0
-780 -224 -230 -235 0
-780 -224 -230 -236 0
-780 -225 -230 -236 0
-780 279 0
-780 -223 284 0
-780 -224 285 0
-780 -225 286 0
-780 -268 0
-781 246 0
-781 -226 0
-781 -239 -223 -243 0
-781 -239 -224 -244 0
-781 -239 -225 -245 0
-781 -217 0
-781 -221 0
-781 -222 0
-781 -223 -207 -213 0
-781 -223 -207 -214 0
-781 -223 -207 -215 0
-781 -224 -207 -214 0
-781 -224 -207 -215 0
-781 -225 -207 -215 0
-781 -223 -208 -213 0
-781 -223 -208 -214 0
-781 -223 -208 -215 0
-781 -224 -208 -214 0
-781 -224 -208 -215 0
-781 -225 -208 -215 0
-781 -223 -209 -213 0
-781 -223 -209 -214 0
-781 -223 -209 -215 0
-781 -224 -209 -214 0
-781 -224 -209 -215 0
-781 -225 -209 -215 0
-781 -223 -228 -234 0
-781 -223 -228 -235 0
-781 -223 -228 -236 0
-781 -224 -228 -235 0
-781 -224 -228 -236 0
-781 -225 -228 -236 0
-781 -223 -229 -234 0
-781 -223 -229 -235 0
-781 -223 -229 -236 0
-781 -224 -229 -235 0
-781 -224 -229 -236 0
-781 -225 -229 -236 0
-781 -223 -230 -234 0
-781 -223 -230 -235 0
-781 -223 -230 -236 0
-781 -224 -230 -235 0
-781 -224 -230 -236 0
-781 -225 -230 -236 0
-781 -223 -231 -234 0
-781 -223 -231 -235 0
-781 -223 -231 -236 0
-781 -224 -231 -235 0
-781 -224 -231 -236 0
-781 -225 -231 -236 0
-781 280 0
-781 -223 284 0
-781 -224 285 0
-781 -225 286 0
-781 -268 0
-782 246 0
-782 -226 0
-782 -240 -223 -243 0
-782 -240 -224 -244 0
-782 -240 -225 -245 0
-782 -217 0
-782 -218 0
-782 -222 0
-782 -223 -208 -213 0
-782 -223 -208 -214 0
-782 -223 -208 -215 0
-782 -224 -208 -214 0
-782 -224 -208 -215 0
-782 -225 -208 -215 0
-782 -223 -209 -213 0
-782 -223 -209 -214 0
-782 -223 -209 -215 0
-782 -224 -209 -214 0
-782 -224 -209 -215 0
-782 -225 -209 -215 0
-782 -223 -210 -213 0
-782 -223 -210 -214 0
-782 -223 -210 -215 0
-782 -224 -210 -214 0
-782 -224 -210 -215 0
-782 -225 -210 -215 0
-782 -223 -229 -234 0
-782 -223 -229 -235 0
-782 -223 -229 -236 0
-782 -224 -229 -235 0
-782 -224 -229 -236 0
-782 -225 -229 -236 0
-782 -223 -230 -234 0
-782 -223 -230 -235 0
-782 -223 -230 -236 0
-782 -224 -230 -235 0
-782 -224 -230 -236 0
-782 -225 -230 -236 0
-782 -223 -231 -234 0
-782 -223 -231 -235 0
-782 -223 -231 -236 0
-782 -224 -231 -235 0
-782 -224 -231 -236 0
-782 -225 -231 -236 0
-782 -223 -232 -234 0
-782 -223 -232 -235 0
-782 -223 -232 -236 0
-782 -224 -232 -235 0
-782 -224 -232 -236 0
-782 -225 -232 -236 0
-782 281 0
-782 -223 284 0
-782 -224 285 0
-782 -225 286 0
-782 -268 0
-783 246 0
-783 -226 0
-783 -241 -223 -243 0
-783 -241 -224 -244 0
-783 -241 -225 -245 0
-783 -217 0
-783 -218 0
-783 -219 0
-783 -223 -209 -213 0
-783 -223 -209 -214 0
-783 -223 -209 -215 0
-783 -224 -209 -214 0
-783 -224 -209 -215 0
-783 -225 -209 -215 0
-783 -223 -210 -213 0
-783 -223 -210 -214 0
-783 -223 -210 -215 0
-783 -224 -210 -214 0
-783 -224 -210 -215 0
-783 -225 -210 -215 0
-783 -223 -211 -213 0
-783 -223 -211 -214 0
-783 -223 -211 -215 0
-783 -224 -211 -214 0
-783 -224 -211 -215 0
-783 -225 -211 -215 0
-783 -223 -230 -234 0
-783 -223 -230 -235 0
-783 -223 -230 -236 0
-783 -224 -230 -235 0
-783 -224 -230 -236 0
-783 -225 -230 -236 0
-783 -223 -231 -234 0
-783 -223 -231 -235 0
-783 -223 -231 -236 0
-783 -224 -231 -235 0
-783 -224 -231 -236 0
-783 -225 -231 -236 0
-783 -223 -232 -234 0
-783 -223 -232 -235 0
-783 -223 -232 -236 0
-783 -224 -232 -235 0
-783 -224 -232 -236 0
-783 -225 -232 -236 0
-783 282 0
-783 -223 284 0
-783 -224 285 0
-783 -225 286 0
-783 -268 0
-784 246 0
-784 -236 0
-784 -238 -233 -243 0
-784 -238 -234 -244 0
-784 -238 -235 -245 0
-784 -231 0
-784 -232 0
-784 -233 -206 -213 0
-784 -233 -206 -214 0
-784 -233 -206 -215 0
-784 -234 -206 -214 0
-784 -234 -206 -215 0
-784 -235 -206 -215 0
-784 -233 -207 -213 0
-784 -233 -207 -214 0
-784 -233 -207 -215 0
-784 -234 -207 -214 0
-784 -234 -207 -215 0
-784 -235 -207 -215 0
-784 -233 -208 -213 0
-784 -233 -208 -214 0
-784 -233 -208 -215 0
-784 -234 -208 -214 0
-784 -234 -208 -215 0
-784 -235 -208 -215 0
-784 -233 -217 -224 0
-784 -233 -217 -225 0
-784 -233 -217 -226 0
-784 -234 -217 -225 0
-784 -234 -217 -226 0
-784 -235 -217 -226 0
-784 -233 -218 -224 0
-784 -233 -218 -225 0
-784 -233 -218 -226 0
-784 -234 -218 -225 0
-784 -234 -218 -226 0
-784 -235 -218 -226 0
-784 -233 -219 -224 0
-784 -233 -219 -225 0
-784 -233 -219 -226 0
-784 -234 -219 -225 0
-784 -234 -219 -226 0
-784 -235 -219 -226 0
-784 279 0
-784 -233 284 0
-784 -234 285 0
-784 -235 286 0
-784 -278 0
-785 246 0
-785 -236 0
-785 -239 -233 -243 0
-785 -239 -234 -244 0
-785 -239 -235 -245 0
-785 -232 0
-785 -233 -207 -213 0
-785 -233 -207 -214 0
-785 -233 -207 -215 0
-785 -234 -207 -214 0
-785 -234 -207 -215 0
-785 -235 -207 -215 0
-785 -233 -208 -213 0
-785 -233 -208 -214 0
-785 -233 -208 -215 0
-785 -234 -208 -214 0
-785 -234 -208 -215 0
-785 -235 -208 -215 0
-785 -233 -209 -213 0
-785 -233 -209 -214 0
-785 -233 -209 -215 0
-785 -234 -209 -214 0
-785 -234 -209 -215 0
-785 -235 -209 -215 0
-785 -233 -218 -224 0
-785 -233 -218 -225 0
-785 -233 -218 -226 0
-785 -234 -218 -225 0
-785 -234 -218 -226 0
-785 -235 -218 -226 0
-785 -233 -219 -224 0
-785 -233 -219 -225 0
-785 -233 -219 -226 0
-785 -234 -219 -225 0
-785 -234 -219 -226 0
-785 -235 -219 -226 0
-785 -233 -220 -224 0
-785 -233 -220 -225 0
-785 -233 -220 -226 0
-785 -234 -220 -225 0
-785 -234 -220 -226 0
-785 -235 -220 -226 0
-785 280 0
-785 -233 284 0
-785 -234 285 0
-785 -235 286 0
-785 -278 0
-786 246 0
-786 -236 0
-786 -240 -233 -243 0
-786 -240 -234 -244 0
-786 -240 -235 -245 0
-786 -228 0
-786 -233 -208 -213 0
-786 -233 -208 -214 0
-786 -233 -208 -215 0
-786 -234 -208 -214 0
-786 -234 -208 -215 0
-786 -235 -208 -215 0
-786 -233 -209 -213 0
-786 -233 -209 -214 0
-786 -233 -209 -215 0
-786 -234 -209 -214 0
-786 -234 -209 -215 0
-786 -235 -209 -215 0
-786 -233 -210 -213 0
-786 -233 -210 -214 0
-786 -233 -210 -215 0
-786 -234 -210 -214 0
-786 -234 -210 -215 0
-786 -235 -210 -215 0
-786 -233 -219 -224 0
-786 -233 -219 -225 0
-786 -233 -219 -226 0
-786 -234 -219 -225 0
-786 -234 -219 -226 0
-786 -235 -219 -226 0
-786 -233 -220 -224 0
-786 -233 -220 -225 0
-786 -233 -220 -226 0
-786 -234 -220 -225 0
-786 -234 -220 -226 0
-786 -235 -220 -226 0
-786 -233 -221 -224 0
-786 -233 -221 -225 0
-786 -233 -221 -226 0
-786 -234 -221 -225 0
-786 -234 -221 -226 0
-786 -235 -221 -226 0
-786 281 0
-786 -233 284 0
-786 -234 285 0
-786 -235 286 0
-786 -278 0
-787 246 0
-787 -236 0
-787 -241 -233 -243 0
-787 -241 -234 -244 0
-787 -241 -235 -245 0
-787 -228 0
-787 -229 0
-787 -233 -209 -213 0
-787 -233 -209 -214 0
-787 -233 -209 -215 0
-787 -234 -209 -214 0
-787 -234 -209 -215 0
-787 -235 -209 -215 0
-787 -233 -210 -213 0
-787 -233 -210 -214 0
-787 -233 -210 -215 0
-787 -234 -210 -214 0
-787 -234 -210 -215 0
-787 -235 -210 -215 0
-787 -233 -211 -213 0
-787 -233 -211 -214 0
-787 -233 -211 -215 0
-787 -234 -211 -214 0
-787 -234 -211 -215 0
-787 -235 -211 -215 0
-787 -233 -220 -224 0
-787 -233 -220 -225 0
-787 -233 -220 -226 0
-787 -234 -220 -225 0
-787 -234 -220 -226 0
-787 -235 -220 -226 0
-787 -233 -221 -224 0
-787 -233 -221 -225 0
-787 -233 -221 -226 0
-787 -234 -221 -225 0
-787 -234 -221 -226 0
-787 -235 -221 -226 0
-787 -233 -222 -224 0
-787 -233 -222 -225 0
-787 -233 -222 -226 0
-787 -234 -222 -225 0
-787 -234 -222 -226 0
-787 -235 -222 -226 0
-787 282 0
-787 -233 284 0
-787 -234 285 0
-787 -235 286 0
-787 -278 0
-788 246 0
-788 -238 -242 0
-788 -206 -212 0
-788 -206 -213 0
-788 -206 -214 0
-788 -206 -215 0
-788 -207 -212 0
-788 -207 -213 0
-788 -207 -214 0
-788 -207 -215 0
-788 -208 -212 0
-788 -208 -213 0
-788 -208 -214 0
-788 -208 -215 0
-788 -217 -223 0
-788 -217 -224 0
-788 -217 -225 0
-788 -217 -226 0
-788 -218 -223 0
-788 -218 -224 0
-788 -218 -225 0
-788 -218 -226 0
-788 -219 -223 0
-788 -219 -224 0
-788 -219 -225 0
-788 -219 -226 0
-788 -228 -233 0
-788 -228 -234 0
-788 -228 -235 0
-788 -228 -236 0
-788 -229 -233 0
-788 -229 -234 0
-788 -229 -235 0
-788 -229 -236 0
-788 -230 -233 0
-788 -230 -234 0
-788 -230 -235 0
-788 -230 -236 0
-788 279 0
-788 283 0
-789 246 0
-789 -239 -242 0
-789 -207 -212 0
-789 -207 -213 0
-789 -207 -214 0
-789 -207 -215 0
-789 -208 -212 0
-789 -208 -213 0
-789 -208 -214 0
-789 -208 -215 0
-789 -209 -212 0
-789 -209 -213 0
-789 -209 -214 0
-789 -209 -215 0
-789 -218 -223 0
-789 -218 -224 0
-789 -218 -225 0
-789 -218 -226 0
-789 -219 -223 0
-789 -219 -224 0
-789 -219 -225 0
-789 -219 -226 0
-789 -220 -223 0
-789 -220 -224 0
-789 -220 -225 0
-789 -220 -226 0
-789 -228 -233 0
-789 -228 -234 0
-789 -228 -235 0
-789 -228 -236 0
-789 -229 -233 0
-789 -229 -234 0
-789 -229 -235 0
-789 -229 -236 0
-789 -230 -233 0
-789 -230 -234 0
-789 -230 -235 0
-789 -230 -236 0
-789 -231 -233 0
-789 -231 -234 0
-789 -231 -235 0
-789 -231 -236 0
-789 280 0
-789 283 0
-790 246 0
-790 -240 -242 0
-790 -208 -212 0
-790 -208 -213 0
-790 -208 -214 0
-790 -208 -215 0
-790 -209 -212 0
-790 -209 -213 0
-790 -209 -214 0
-790 -209 -215 0
-790 -210 -212 0
-790 -210 -213 0
-790 -210 -214 0
-790 -210 -215 0
-790 -219 -223 0
-790 -219 -224 0
-790 -219 -225 0
-790 -219 -226 0
-790 -220 -223 0
-790 -220 -224 0
-790 -220 -225 0
-790 -220 -226 0
-790 -221 -223 0
-790 -221 -224 0
-790 -221 -225 0
-790 -221 -226 0
-790 -229 -233 0
-790 -229 -234 0
-790 -229 -235 0
-790 -229 -236 0
-790 -230 -233 0
-790 -230 -234 0
-790 -230 -235 0
-790 -230 -236 0
-790 -231 -233 0
-790 -231 -234 0
-790 -231 -235 0
-790 -231 -236 0
-790 -232 -233 0
-790 -232 -234 0
-790 -232 -235 0
-790 -232 -236 0
-790 281 0
-790 283 0
-791 246 0
-791 -241 -242 0
-791 -209 -212 0
-791 -209 -213 0
-791 -209 -214 0
-791 -209 -215 0
-791 -210 -212 0
-791 -210 -213 0
-791 -210 -214 0
-791 -210 -215 0
-791 -211 -212 0
-791 -211 -213 0
-791 -211 -214 0
-791 -211 -215 0
-791 -220 -223 0
-791 -220 -224 0
-791 -220 -225 0
-791 -220 -226 0
-791 -221 -223 0
-791 -221 -224 0
-791 -221 -225 0
-791 -221 -226 0
-791 -222 -223 0
-791 -222 -224 0
-791 -222 -225 0
-791 -222 -226 0
-791 -230 -233 0
-791 -230 -234 0
-791 -230 -235 0
-791 -230 -236 0
-791 -231 -233 0
-791 -231 -234 0
-791 -231 -235 0
-791 -231 -236 0
-791 -232 -233 0
-791 -232 -234 0
-791 -232 -235 0
-791 -232 -236 0
-791 282 0
-791 283 0
-1 42 288 289 290 291 292 293 294 295 296 297 298 299 300 301 302 303 304 305 306 307 308 309 310 311 0
-2 43 288 289 290 291 292 293 294 295 296 297 298 299 300 301 302 303 304 305 306 307 308 309 310 311 0
-3 44 288 289 290 291 292 293 294 295 296 297 298 299 300 301 302 303 304 305 306 307 308 309 310 311 0
-4 45 288 289 290 291 292 293 294 295 296 297 298 299 300 301 302 303 304 305 306 307 308 309 310 311 0
-5 46 288 289 290 291 292 293 294 295 296 297 298 299 300 301 302 303 304 305 306 307 308 309 310 311 0
-6 47 288 289 290 291 292 293 294 295 296 297 298 299 300 301 302 303 304 305 306 307 308 309 310 311 0
-7 48 288 289 290 291 292 293 294 295 296 297 298 299 300 301 302 303 304 305 306 307 308 309 310 311 0
-8 49 288 289 290 291 292 293 294 295 296 297 298 299 300 301 302 303 304 305 306 307 308 309 310 311 0
-9 50 288 289 290 291 292 293 294 295 296 297 298 299 300 301 302 303 304 305 306 307 308 309 310 311 0
-10 51 288 289 290 291 292 293 294 295 296 297 298 299 300 301 302 303 304 305 306 307 308 309 310 311 0
-12 53 312 313 314 315 316 317 318 319 320 321 322 323 324 325 326 327 328 329 330 331 332 333 334 335 0
-13 54 312 313 314 315 316 317 318 319 320 321 322 323 324 325 326 327 328 329 330 331 332 333 334 335 0
-14 55 312 313 314 315 316 317 318 319 320 321 322 323 324 325 326 327 328 329 330 331 332 333 334 335 0
-15 56 312 313 314 315 316 317 318 319 320 321 322 323 324 325 326 327 328 329 330 331 332 333 334 335 0
-16 57 312 313 314 315 316 317 318 319 320 321 322 323 324 325 326 327 328 329 330 331 332 333 334 335 0
-17 58 312 313 314 315 316 317 318 319 320 321 322 323 324 325 326 327 328 329 330 331 332 333 334 335 0
-18 59 312 313 314 315 316 317 318 319 320 321 322 323 324 325 326 327 328 329 330 331 332 333 334 335 0
-19 60 312 313 314 315 316 317 318 319 320 321 322 323 324 325 326 327 328 329 330 331 332 333 334 335 0
-20 61 312 313 314 315 316 317 318 319 320 321 322 323 324 325 326 327 328 329 330 331 332 333 334 335 0
-21 62 312 313 314 315 316 317 318 319 320 321 322 323 324 325 326 327 328 329 330 331 332 333 334 335 0
-23 64 336 337 338 339 340 341 342 343 344 345 346 347 348 349 350 351 352 353 354 355 0
-24 65 336 337 338 339 340 341 342 343 344 345 346 347 348 349 350 351 352 353 354 355 0
-25 66 336 337 338 339 340 341 342 343 344 345 346 347 348 349 350 351 352 353 354 355 0
-26 67 336 337 338 339 340 341 342 343 344 345 346 347 348 349 350 351 352 353 354 355 0
-27 68 336 337 338 339 340 341 342 343 344 345 346 347 348 349 350 351 352 353 354 355 0
-28 69 336 337 338 339 340 341 342 343 344 345 346 347 348 349 350 351 352 353 354 355 0
-29 70 336 337 338 339 340 341 342 343 344 345 346 347 348 349 350 351 352 353 354 355 0
-30 71 336 337 338 339 340 341 342 343 344 345 346 347 348 349 350 351 352 353 354 355 0
-31 72 336 337 338 339 340 341 342 343 344 345 346 347 348 349 350 351 352 353 354 355 0
-33 74 356 357 358 359 360 361 362 363 364 365 366 367 368 369 370 371 0
-34 75 356 357 358 359 360 361 362 363 364 365 366 367 368 369 370 371 0
-35 76 356 357 358 359 360 361 362 363 364 365 366 367 368 369 370 371 0
-36 77 356 357 358 359 360 361 362 363 364 365 366 367 368 369 370 371 0
-37 78 356 357 358 359 360 361 362 363 364 365 366 367 368 369 370 371 0
-38 79 356 357 358 359 360 361 362 363 364 365 366 367 368 369 370 371 0
-39 80 356 357 358 359 360 361 362 363 364 365 366 367 368 369 370 371 0
-40 81 356 357 358 359 360 361 362 363 364 365 366 367 368 369 370 371 0
-42 83 372 373 374 375 376 377 378 379 380 381 382 383 384 385 386 387 388 389 390 391 392 393 394 395 0
-43 84 372 373 374 375 376 377 378 379 380 381 382 383 384 385 386 387 388 389 390 391 392 393 394 395 0
-44 85 372 373 374 375 376 377 378 379 380 381 382 383 384 385 386 387 388 389 390 391 392 393 394 395 0
-45 86 372 373 374 375 376 377 378 379 380 381 382 383 384 385 386 387 388 389 390 391 392 393 394 395 0
-46 87 372 373 374 375 376 377 378 379 380 381 382 383 384 385 386 387 388 389 390 391 392 393 394 395 0
-47 88 372 373 374 375 376 377 378 379 380 381 382 383 384 385 386 387 388 389 390 391 392 393 394 395 0
-48 89 372 373 374 375 376 377 378 379 380 381 382 383 384 385 386 387 388 389 390 391 392 393 394 395 0
-49 90 372 373 374 375 376 377 378 379 380 381 382 383 384 385 386 387 388 389 390 391 392 393 394 395 0
-50 91 372 373 374 375 376 377 378 379 380 381 382 383 384 385 386 387 388 389 390 391 392 393 394 395 0
-51 92 372 373 374 375 376 377 378 379 380 381 382 383 384 385 386 387 388 389 390 391 392 393 394 395 0
-53 94 396 397 398 399 400 401 402 403 404 405 406 407 408 409 410 411 412 413 414 415 416 417 418 419 0
-54 95 396 397 398 399 400 401 402 403 404 405 406 407 408 409 410 411 412 413 414 415 416 417 418 419 0
-55 96 396 397 398 399 400 401 402 403 404 405 406 407 408 409 410 411 412 413 414 415 416 417 418 419 0
-56 97 396 397 398 399 400 401 402 403 404 405 406 407 408 409 410 411 412 413 414 415 416 417 418 419 0
-57 98 396 397 398 399 400 401 402 403 404 405 406 407 408 409 410 411 412 413 414 415 416 417 418 419 0
-58 99 396 397 398 399 400 401 402 403 404 405 406 407 408 409 410 411 412 413 414 415 416 417 418 419 0
-59 100 396 397 398 399 400 401 402 403 404 405 406 407 408 409 410 411 412 413 414 415 416 417 418 419 0
-60 101 396 397 398 399 400 401 402 403 404 405 406 407 408 409 410 411 412 413 414 415 416 417 418 419 0
-61 102 396 397 398 399 400 401 402 403 404 405 406 407 408 409 410 411 412 413 414 415 416 417 418 419 0
-62 103 396 397 398 399 400 401 402 403 404 405 406 407 408 409 410 411 412 413 414 415 416 417 418 419 0
-64 105 420 421 422 423 424 425 426 427 428 429 430 431 432 433 434 435 436 437 438 439 0
-65 106 420 421 422 423 424 425 426 427 428 429 430 431 432 433 434 435 436 437 438 439 0
-66 107 420 421 422 423 424 425 426 427 428 429 430 431 432 433 434 435 436 437 438 439 0
-67 108 420 421 422 423 424 425 426 427 428 429 430 431 432 433 434 435 436 437 438 439 0
-68 109 420 421 422 423 424 425 426 427 428 429 430 431 432 433 434 435 436 437 438 439 0
-69 110 420 421 422 423 424 425 426 427 428 429 430 431 432 433 434 435 436 437 438 439 0
-70 111 420 421 422 423 424 425 426 427 428 429 430 431 432 433 434 435 436 437 438 439 0
-71 112 420 421 422 423 424 425 426 427 428 429 430 431 432 433 434 435 436 437 438 439 0
-72 113 420 421 422 423 424 425 426 427 428 429 430 431 432 433 434 435 436 437 438 439 0
-74 115 440 441 442 443 444 445 446 447 448 449 450 451 452 453 454 455 0
-75 116 440 441 442 443 444 445 446 447 448 449 450 451 452 453 454 455 0
-76 117 440 441 442 443 444 445 446 447 448 449 450 451 452 453 454 455 0
-77 118 440 441 442 443 444 445 446 447 448 449 450 451 452 453 454 455 0
-78 119 440 441 442 443 444 445 446 447 448 449 450 451 452 453 454 455 0
-79 120 440 441 442 443 444 445 446 447 448 449 450 451 452 453 454 455 0
-80 121 440 441 442 443 444 445 446 447 448 449 450 451 452 453 454 455 0
-81 122 440 441 442 443 444 445 446 447 448 449 450 451 452 453 454 455 0
-83 124 456 457 458 459 460 461 462 463 464 465 466 467 468 469 470 471 472 473 474 475 476 477 478 479 0
-84 125 456 457 458 459 460 461 462 463 464 465 466 467 468 469 470 471 472 473 474 475 476 477 478 479 0
-85 126 456 457 458 459 460 461 462 463 464 465 466 467 468 469 470 471 472 473 474 475 476 477 478 479 0
-86 127 456 457 458 459 460 461 462 463 464 465 466 467 468 469 470 471 472 473 474 475 476 477 478 479 0
-87 128 456 457 458 459 460 461 462 463 464 465 466 467 468 469 470 471 472 473 474 475 476 477 478 479 0
-88 129 456 457 458 459 460 461 462 463 464 465 466 467 468 469 470 471 472 473 474 475 476 477 478 479 0
-89 130 456 457 458 459 460 461 462 463 464 465 466 467 468 469 470 471 472 473 474 475 476 477 478 479 0
-90 131 456 457 458 459 460 461 462 463 464 465 466 467 468 469 470 471 472 473 474 475 476 477 478 479 0
-91 132 456 457 458 459 460 461 462 463 464 465 466 467 468 469 470 471 472 473 474 475 476 477 478 479 0
-92 133 456 457 458 459 460 461 462 463 464 465 466 467 468 469 470 471 472 473 474 475 476 477 478 479 0
-94 135 480 481 482 483 484 485 486 487 488 489 490 491 492 493 494 495 496 497 498 499 500 501 502 503 0
-95 136 480 481 482 483 484 485 486 487 488 489 490 491 492 493 494 495 496 497 498 499 500 501 502 503 0
-96 137 480 481 482 483 484 485 486 487 488 489 490 491 492 493 494 495 496 497 498 499 500 501 502 503 0
-97 138 480 481 482 483 484 485 486 487 488 489 490 491 492 493 494 495 496 497 498 499 500 501 502 503 0
-98 139 480 481 482 483 484 485 486 487 488 489 490 491 492 493 494 495 496 497 498 499 500 501 502 503 0
-99 140 480 481 482 483 484 485 486 487 488 489 490 491 492 493 494 495 496 497 498 499 500 501 502 503 0
-100 141 480 481 482 483 484 485 486 487 488 489 490 491 492 493 494 495 496 497 498 499 500 501 502 503 0
-101 142 480 481 482 483 484 485 486 487 488 489 490 491 492 493 494 495 496 497 498 499 500 501 502 503 0
-102 143 480 481 482 483 484 485 486 487 488 489 490 491 492 493 494 495 496 497 498 499 500 501 502 503 0
-103 144 480 481 482 483 484 485 486 487 488 489 490 491 492 493 494 495 496 497 498 499 500 501 502 503 0
-105 146 504 505 506 507 508 509 510 511 512 513 514 515 516 517 518 519 520 521 522 523 0
-106 147 504 505 506 507 508 509 510 511 512 513 514 515 516 517 518 519 520 521 522 523 0
-107 148 504 505 506 507 508 509 510 511 512 513 514 515 516 517 518 519 520 521 522 523 0
-108 149 504 505 506 507 508 509 510 511 512 513 514 515 516 517 518 519 520 521 522 523 0
-109 150 504 505 506 507 508 509 510 511 512 513 514 515 516 517 518 519 520 521 522 523 0
-110 151 504 505 506 507 508 509 510 511 512 513 514 515 516 517 518 519 520 521 522 523 0
-111 152 504 505 506 507 508 509 510 511 512 513 514 515 516 517 518 519 520 521 522 523 0
-112 153 504 505 506 507 508 509 510 511 512 513 514 515 516 517 518 519 520 521 522 523 0
-113 154 504 505 506 507 508 509 510 511 512 513 514 515 516 517 518 519 520 521 522 523 0
-115 156 524 525 526 527 528 529 530 531 532 533 534 535 536 537 538 539 0
-116 157 524 525 526 527 528 529 530 531 532 533 534 535 536 537 538 539 0
-117 158 524 525 526 527 528 529 530 531 532 533 534 535 536 537 538 539 0
-118 159 524 525 526 527 528 529 530 531 532 533 534 535 536 537 538 539 0
-119 160 524 525 526 527 528 529 530 531 532 533 534 535 536 537 538 539 0
-120 161 524 525 526 527 528 529 530 531 532 533 534 535 536 537 538 539 0
-121 162 524 525 526 527 528 529 530 531 532 533 534 535 536 537 538 539 0
-122 163 524 525 526 527 528 529 530 531 532 533 534 535 536 537 538 539 0
-124 165 540 541 542 543 544 545 546 547 548 549 550 551 552 553 554 555 556 557 558 559 560 561 562 563 0
-125 166 540 541 542 543 544 545 546 547 548 549 550 551 552 553 554 555 556 557 558 559 560 561 562 563 0
-126 167 540 541 542 543 544 545 546 547 548 549 550 551 552 553 554 555 556 557 558 559 560 561 562 563 0
-127 168 540 541 542 543 544 545 546 547 548 549 550 551 552 553 554 555 556 557 558 559 560 561 562 563 0
-128 169 540 541 542 543 544 545 546 547 548 549 550 551 552 553 554 555 556 557 558 559 560 561 562 563 0
-129 170 540 541 542 543 544 545 546 547 548 549 550 551 552 553 554 555 556 557 558 559 560 561 562 563 0
-130 171 540 541 542 543 544 545 546 547 548 549 550 551 552 553 554 555 556 557 558 559 560 561 562 563 0
-131 172 540 541 542 543 544 545 546 547 548 549 550 551 552 553 554 555 556 557 558 559 560 561 562 563 0
-132 173 540 541 542 543 544 545 546 547 548 549 550 551 552 553 554 555 556 557 558 559 560 561 562 563 0
-133 174 540 541 542 543 544 545 546 547 548 549 550 551 552 553 554 555 556 557 558 559 560 561 562 563 0
-135 176 564 565 566 567 568 569 570 571 572 573 574 575 576 577 578 579 580 581 582 583 584 585 586 587 0
-136 177 564 565 566 567 568 569 570 571 572 573 574 575 576 577 578 579 580 581 582 583 584 585 586 587 0
-137 178 564 565 566 567 568 569 570 571 572 573 574 575 576 577 578 579 580 581 582 583 584 585 586 587 0
-138 179 564 565 566 567 568 569 570 571 572 573 574 575 576 577 578 579 580 581 582 583 584 585 586 587 0
-139 180 564 565 566 567 568 569 570 571 572 573 574 575 576 577 578 579 580 581 582 583 584 585 586 587 0
-140 181 564 565 566 567 568 569 570 571 572 573 574 575 576 577 578 579 580 581 582 583 584 585 586 587 0
-141 182 564 565 566 567 568 569 570 571 572 573 574 575 576 577 578 579 580 581 582 583 584 585 586 587 0
-142 183 564 565 566 567 568 569 570 571 572 573 574 575 576 577 578 579 580 581 582 583 584 585 586 587 0
-143 184 564 565 566 567 568 569 570 571 572 573 574 575 576 577 578 579 580 581 582 583 584 585 586 587 0
-144 185 564 565 566 567 568 569 570 571 572 573 574 575 576 577 578 579 580 581 582 583 584 585 586 587 0
-146 187 588 589 590 591 592 593 594 595 596 597 598 599 600 601 602 603 604 605 606 607 0
-147 188 588 589 590 591 592 593 594 595 596 597 598 599 600 601 602 603 604 605 606 607 0
-148 189 588 589 590 591 592 593 594 595 596 597 598 599 600 601 602 603 604 605 606 607 0
-149 190 588 589 590 591 592 593 594 595 596 597 598 599 600 601 602 603 604 605 606 607 0
-150 191 588 589 590 591 592 593 594 595 596 597 598 599 600 601 602 603 604 605 606 607 0
-151 192 588 589 590 591 592 593 594 595 596 597 598 599 600 601 602 603 604 605 606 607 0
-152 193 588 589 590 591 592 593 594 595 596 597 598 599 600 601 602 603 604 605 606 607 0
-153 194 588 589 590 591 592 593 594 595 596 597 598 599 600 601 602 603 604 605 606 607 0
-154 195 588 589 590 591 592 593 594 595 596 597 598 599 600 601 602 603 604 605 606 607 0
-156 197 608 609 610 611 612 613 614 615 616 617 618 619 620 621 622 623 0
-157 198 608 609 610 611 612 613 614 615 616 617 618 619 620 621 622 623 0
-158 199 608 609 610 611 612 613 614 615 616 617 618 619 620 621 622 623 0
-159 200 608 609 610 611 612 613 614 615 616 617 618 619 620 621 622 623 0
-160 201 608 609 610 611 612 613 614 615 616 617 618 619 620 621 622 623 0
-161 202 608 609 610 611 612 613 614 615 616 617 618 619 620 621 622 623 0
-162 203 608 609 610 611 612 613 614 615 616 617 618 619 620 621 622 623 0
-163 204 608 609 610 611 612 613 614 615 616 617 618 619 620 621 622 623 0
-165 206 624 625 626 627 628 629 630 631 632 633 634 635 636 637 638 639 640 641 642 643 644 645 646 647 0
-166 207 624 625 626 627 628 629 630 631 632 633 634 635 636 637 638 639 640 641 642 643 644 645 646 647 0
-167 208 624 625 626 627 628 629 630 631 632 633 634 635 636 637 638 639 640 641 642 643 644 645 646 647 0
-168 209 624 625 626 627 628 629 630 631 632 633 634 635 636 637 638 639 640 641 642 643 644 645 646 647 0
-169 210 624 625 626 627 628 629 630 631 632 633 634 635 636 637 638 639 640 641 642 643 644 645 646 647 0
-170 211 624 625 626 627 628 629 630 631 632 633 634 635 636 637 638 639 640 641 642 643 644 645 646 647 0
-171 212 624 625 626 627 628 629 630 631 632 633 634 635 636 637 638 639 640 641 642 643 644 645 646 647 0
-172 213 624 625 626 627 628 629 630 631 632 633 634 635 636 637 638 639 640 641 642 643 644 645 646 647 0
-173 214 624 625 626 627 628 629 630 631 632 633 634 635 636 637 638 639 640 641 642 643 644 645 646 647 0
-174 215 624 625 626 627 628 629 630 631 632 633 634 635 636 637 638 639 640 641 642 643 644 645 646 647 0
-176 217 648 649 650 651 652 653 654 655 656 657 658 659 660 661 662 663 664 665 666 667 668 669 670 671 0
-177 218 648 649 650 651 652 653 654 655 656 657 658 659 660 661 662 663 664 665 666 667 668 669 670 671 0
-178 219 648 649 650 651 652 653 654 655 656 657 658 659 660 661 662 663 664 665 666 667 668 669 670 671 0
-179 220 648 649 650 651 652 653 654 655 656 657 658 659 660 661 662 663 664 665 666 667 668 669 670 671 0
-180 221 648 649 650 651 652 653 654 655 656 657 658 659 660 661 662 663 664 665 666 667 668 669 670 671 0
-181 222 648 649 650 651 652 653 654 655 656 657 658 659 660 661 662 663 664 665 666 667 668 669 670 671 0
-182 223 648 649 650 651 652 653 654 655 656 657 658 659 660 661 662 663 664 665 666 667 668 669 670 671 0
-183 224 648 649 650 651 652 653 654 655 656 657 658 659 660 661 662 663 664 665 666 667 668 669 670 671 0
-184 225 648 649 650 651 652 653 654 655 656 657 658 659 660 661 662 663 664 665 666 667 668 669 670 671 0
-185 226 648 649 650 651 652 653 654 655 656 657 658 659 660 661 662 663 664 665 666 667 668 669 670 671 0
-187 228 672 673 674 675 676 677 678 679 680 681 682 683 684 685 686 687 688 689 690 691 0
-188 229 672 673 674 675 676 677 678 679 680 681 682 683 684 685 686 687 688 689 690 691 0
-189 230 672 673 674 675 676 677 678 679 680 681 682 683 684 685 686 687 688 689 690 691 0
-190 231 672 673 674 675 676 677 678 679 680 681 682 683 684 685 686 687 688 689 690 691 0
-191 232 672 673 674 675 676 677 678 679 680 681 682 683 684 685 686 687 688 689 690 691 0
-192 233 672 673 674 675 676 677 678 679 680 681 682 683 684 685 686 687 688 689 690 691 0
-193 234 672 673 674 675 676 677 678 679 680 681 682 683 684 685 686 687 688 689 690 691 0
-194 235 672 673 674 675 676 677 678 679 680 681 682 683 684 685 686 687 688 689 690 691 0
-195 236 672 673 674 675 676 677 678 679 680 681 682 683 684 685 686 687 688 689 690 691 0
-197 238 692 693 694 695 696 697 698 699 700 701 702 703 704 705 706 707 0
-198 239 692 693 694 695 696 697 698 699 700 701 702 703 704 705 706 707 0
-199 240 692 693 694 695 696 697 698 699 700 701 702 703 704 705 706 707 0
-200 241 692 693 694 695 696 697 698 699 700 701 702 703 704 705 706 707 0
-201 242 692 693 694 695 696 697 698 699 700 701 702 703 704 705 706 707 0
-202 243 692 693 694 695 696 697 698 699 700 701 702 703 704 705 706 707 0
-203 244 692 693 694 695 696 697 698 699 700 701 702 703 704 705 706 707 0
-204 245 692 693 694 695 696 697 698 699 700 701 702 703 704 705 706 707 0
-206 247 708 709 710 711 712 713 714 715 716 717 718 719 720 721 722 723 724 725 726 727 728 729 730 731 0
-207 248 708 709 710 711 712 713 714 715 716 717 718 719 720 721 722 723 724 725 726 727 728 729 730 731 0
-208 249 708 709 710 711 712 713 714 715 716 717 718 719 720 721 722 723 724 725 726 727 728 729 730 731 0
-209 250 708 709 710 711 712 713 714 715 716 717 718 719 720 721 722 723 724 725 726 727 728 729 730 731 0
-210 251 708 709 710 711 712 713 714 715 716 717 718 719 720 721 722 723 724 725 726 727 728 729 730 731 0
-211 252 708 709 710 711 712 713 714 715 716 717 718 719 720 721 722 723 724 725 726 727 728 729 730 731 0
-212 253 708 709 710 711 712 713 714 715 716 717 718 719 720 721 722 723 724 725 726 727 728 729 730 731 0
-213 254 708 709 710 711 712 713 714 715 716 717 718 719 720 721 722 723 724 725 726 727 728 729 730 731 0
-214 255 708 709 710 711 712 713 714 715 716 717 718 719 720 721 722 723 724 725 726 727 728 729 730 731 0
-215 256 708 709 710 711 712 713 714 715 716 717 718 719 720 721 722 723 724 725 726 727 728 729 730 731 0
-217 258 732 733 734 735 736 737 738 739 740 741 742 743 744 745 746 747 748 749 750 751 752 753 754 755 0
-218 259 732 733 734 735 736 737 738 739 740 741 742 743 744 745 746 747 748 749 750 751 752 753 754 755 0
-219 260 732 733 734 735 736 737 738 739 740 741 742 743 744 745 746 747 748 749 750 751 752 753 754 755 0
-220 261 732 733 734 735 736 737 738 739 740 741 742 743 744 745 746 747 748 749 750 751 752 753 754 755 0
-221 262 732 733 734 735 736 737 738 739 740 741 742 743 744 745 746 747 748 749 750 751 752 753 754 755 0
-222 263 732 733 734 735 736 737 738 739 740 741 742 743 744 745 746 747 748 749 750 751 752 753 754 755 0
-223 264 732 733 734 735 736 737 738 739 740 741 742 743 744 745 746 747 748 749 750 751 752 753 754 755 0
-224 265 732 733 734 735 736 737 738 739 740 741 742 743 744 745 746 747 748 749 750 751 752 753 754 755 0
-225 266 732 733 734 735 736 737 738 739 740 741 742 743 744 745 746 747 748 749 750 751 752 753 754 755 0
-226 267 732 733 734 735 736 737 738 739 740 741 742 743 744 745 746 747 748 749 750 751 752 753 754 755 0
-228 269 756 757 758 759 760 761 762 763 764 765 766 767 768 769 770 771 772 773 774 775 0
-229 270 756 757 758 759 760 761 762 763 764 765 766 767 768 769 770 771 772 773 774 775 0
-230 271 756 757 758 759 760 761 762 763 764 765 766 767 768 769 770 771 772 773 774 775 0
-231 272 756 757 758 759 760 761 762 763 764 765 766 767 768 769 770 771 772 773 774 775 0
-232 273 756 757 758 759 760 761 762 763 764 765 766 767 768 769 770 771 772 773 774 775 0
-233 274 756 757 758 759 760 761 762 763 764 765 766 767 768 769 770 771 772 773 774 775 0
-234 275 756 757 758 759 760 761 762 763 764 765 766 767 768 769 770 771 772 773 774 775 0
-235 276 756 757 758 759 760 761 762 763 764 765 766 767 768 769 770 771 772 773 774 775 0
-236 277 756 757 758 759 760 761 762 763 764 765 766 767 768 769 770 771 772 773 774 775 0
-238 279 776 777 778 779 780 781 782 783 784 785 786 787 788 789 790 791 0
-239 280 776 777 778 779 780 781 782 783 784 785 786 787 788 789 790 791 0
-240 281 776 777 778 779 780 781 782 783 784 785 786 787 788 789 790 791 0
-241 282 776 777 778 779 780 781 782 783 784 785 786 787 788 789 790 791 0
-242 283 776 777 778 779 780 781 782 783 784 785 786 787 788 789 790 791 0
-243 284 776 777 778 779 780 781 782 783 784 785 786 787 788 789 790 791 0
-244 285 776 777 778 779 780 781 782 783 784 785 786 787 788 789 790 791 0
-245 286 776 777 778 779 780 781 782 783 784 785 786 787 788 789 790 791 0
288 289 290 291 292 293 294 295 296 297 298 299 300 301 302 303 304 305 306 307 308 309 310 311 312 313 314 315 316 317 318 319 320 321 322 323 324 325 326 327 328 329 330 331 332 333 334 335 336 337 338 339 340 341 342 343 344 345 346 347 348 349 350 351 352 353 354 355 356 357 358 359 360 361 362 363 364 365 366 367 368 369 370 371 0
-288 -289 0
-288 -290 0
-288 -291 0
-288 -292 0
-288 -293 0
-288 -294 0
-288 -295 0
-288 -296 0
-288 -297 0
-288 -298 0
-288 -299 0
-288 -300 0
-288 -301 0
-288 -302 0
-288 -303 0
-288 -304 0
-288 -305 0
-288 -306 0
-288 -307 0
-288 -308 0
-288 -309 0
-288 -310 0
-288 -311 0
-288 -312 0
-288 -313 0
-288 -314 0
-288 -315 0
-288 -316 0
-288 -317 0
-288 -318 0
-288 -319 0
-288 -320 0
-288 -321 0
-288 -322 0
-288 -323 0
-288 -324 0
-288 -325 0
-288 -326 0
-288 -327 0
-288 -328 0
-288 -329 0
-288 -330 0
-288 -331 0
-288 -332 0
-288 -333 0
-288 -334 0
-288 -335 0
-288 -336 0
-288 -337 0
-288 -338 0
-288 -339 0
-288 -340 0
-288 -341 0
-288 -342 0
-288 -343 0
-288 -344 0
-288 -345 0
-288 -346 0
-288 -347 0
-288 -348 0
-288 -349 0
-288 -350 0
-288 -351 0
-288 -352 0
-288 -353 0
-288 -354 0
-288 -355 0
-288 -356 0
-288 -357 0
-288 -358 0
-288 -359 0
-288 -360 0
-288 -361 0
-288 -362 0
-288 -363 0
-288 -364 0
-288 -365 0
-288 -366 0
-288 -367 0
-288 -368 0
-288 -369 0
-288 -370 0
-288 -371 0
-289 -290 0
-289 -291 0
-289 -292 0
-289 -293 0
-289 -294 0
-289 -295 0
-289 -296 0
-289 -297 0
-289 -298 0
-289 -299 0
-289 -300 0
-289 -301 0
-289 -302 0
-289 -303 0
-289 -304 0
-289 -305 0
-289 -306 0
-289 -307 0
-289 -308 0
-289 -309 0
-289 -310 0
-289 -311 0
-289 -312 0
-289 -313 0
-289 -314 0
-289 -315 0
-289 -316 0
-289 -317 0
-289 -318 0
-289 -319 0
-289 -320 0
-289 -321 0
-289 -322 0
-289 -323 0
-289 -324 0
-289 -325 0
-289 -326 0
-289 -327 0
-289 -328 0
-289 -329 0
-289 -330 0
-289 -331 0
-289 -332 0
-289 -333 0
-289 -334 0
-289 -335 0
-289 -336 0
-289 -337 0
-289 -338 0
-289 -339 0
-289 -340 0
-289 -341 0
-289 -342 0
-289 -343 0
-289 -344 0
-289 -345 0
-289 -346 0
-289 -347 0
-289 -348 0
-289 -349 0
-289 -350 0
-289 -351 0
-289 -352 0
-289 -353 0
-289 -354 0
-289 -355 0
-289 -356 0
-289 -357 0
-289 -358 0
-289 -359 0
-289 -360 0
-289 -361 0
-289 -362 0
-289 -363 0
-289 -364 0
-289 -365 0
-289 -366 0
-289 -367 0
-289 -368 0
-289 -369 0
-289 -370 0
-289 -371 0
-290 -291 0
-290 -292 0
-290 -293 0
-290 -294 0
-290 -295 0
-290 -296 0
-290 -297 0
-290 -298 0
-290 -299 0
-290 -300 0
-290 -301 0
-290 -302 0
-290 -303 0
-290 -304 0
-290 -305 0
-290 -306 0
-290 -307 0
-290 -308 0
-290 -309 0
-290 -310 0
-290 -311 0
-290 -312 0
-290 -313 0
-290 -314 0
-290 -315 0
-290 -316 0
-290 -317 0
-290 -318 0
-290 -319 0
-290 -320 0
-290 -321 0
-290 -322 0
-290 -323 0
-290 -324 0
-290 -325 0
-290 -326 0
-290 -327 0
-290 -328 0
-290 -329 0
-290 -330 0
-290 -331 0
-290 -332 0
-290 -333 0
-290 -334 0
-290 -335 0
-290 -336 0
-290 -337 0
-290 -338 0
-290 -339 0
-290 -340 0
-290 -341 0
-290 -342 0
-290 -343 0
-290 -344 0
-290 -345 0
-290 -346 0
-290 -347 0
-290 -348 0
-290 -349 0
-290 -350 0
-290 -351 0
-290 -352 0
-290 -353 0
-290 -354 0
-290 -355 0
-290 -356 0
-290 -357 0
-290 -358 0
-290 -359 0
-290 -360 0
-290 -361 0
-290 -362 0
-290 -363 0
-290 -364 0
-290 -365 0
-290 -366 0
-290 -367 0
-290 -368 0
-290 -369 0
-290 -370 0
-290 -371 0
-291 -292 0
-291 -293 0
-291 -294 0
-291 -295 0
-291 -296 0
-291 -297 0
-291 -298 0
-291 -299 0
-291 -300 0
-291 -301 0
-291 -302 0
-291 -303 0
-291 -304 0
-291 -305 0
-291 -306 0
-291 -307 0
-291 -308 0
-291 -309 0
-291 -310 0
-291 -311 0
-291 -312 0
-291 -313 0
-291 -314 0
-291 -315 0
-291 -316 0
-291 -317 0
-291 -318 0
-291 -319 0
-291 -320 0
-291 -321 0
-291 -322 0
-291 -323 0
-291 -324 0
-291 -325 0
-291 -326 0
-291 -327 0
-291 -328 0
-291 -329 0
-291 -330 0
-291 -331 0
-291 -332 0
-291 -333 0
-291 -334 0
-291 -335 0
-291 -336 0
-291 -337 0
-291 -338 0
-291 -339 0
-291 -340 0
-291 -341 0
-291 -342 0
-291 -343 0
-291 -344 0
-291 -345 0
-291 -346 0
-291 -347 0
-291 -348 0
-291 -349 0
-291 -350 0
-291 -351 0
-291 -352 0
-291 -353 0
-291 -354 0
-291 -355 0
-291 -356 0
-291 -357 0
-291 -358 0
-291 -359 0
-291 -360 0
-291 -361 0
-291 -362 0
-291 -363 0
-291 -364 0
-291 -365 0
-291 -366 0
-291 -367 0
-291 -368 0
-291 -369 0
-291 -370 0
-291 -371 0
-292 -293 0
-292 -294 0
-292 -295 0
-292 -296 0
-292 -297 0
-292 -298 0
-292 -299 0
-292 -300 0
-292 -301 0
-292 -302 0
-292 -303 0
-292 -304 0
-292 -305 0
-292 -306 0
-292 -307 0
-292 -308 0
-292 -309 0
-292 -310 0
-292 -311 0
-292 -312 0
-292 -313 0
-292 -314 0
-292 -315 0
-292 -316 0
-292 -317 0
-292 -318 0
-292 -319 0
-292 -320 0
-292 -321 0
-292 -322 0
-292 -323 0
-292 -324 0
-292 -325 0
-292 -326 0
-292 -327 0
-292 -328 0
-292 -329 0
-292 -330 0
-292 -331 0
-292 -332 0
-292 -333 0
-292 -334 0
-292 -335 0
-292 -336 0
-292 -337 0
-292 -338 0
-292 -339 0
-292 -340 0
-292 -341 0
-292 -342 0
-292 -343 0
-292 -344 0
-292 -345 0
-292 -346 0
-292 -347 0
-292 -348 0
-292 -349 0
-292 -350 0
-292 -351 0
-292 -352 0
-292 -353 0
-292 -354 0
-292 -355 0
-292 -356 0
-292 -357 0
-292 -358 0
-292 -359 0
-292 -360 0
-292 -361 0
-292 -362 0
-292 -363 0
-292 -364 0
-292 -365 0
-292 -366 0
-292 -367 0
-292 -368 0
-292 -369 0
-292 -370 0
-292 -371 0
-293 -294 0
-293 -295 0
-293 -296 0
-293 -297 0
-293 -298 0
-293 -299 0
-293 -300 0
-293 -301 0
-293 -302 0
-293 -303 0
-293 -304 0
-293 -305 0
-293 -306 0
-293 -307 0
-293 -308 0
-293 -309 0
-293 -310 0
-293 -311 0
-293 -312 0
-293 -313 0
-293 -314 0
-293 -315 0
-293 -316 0
-293 -317 0
-293 -318 0
-293 -319 0
-293 -320 0
-293 -321 0
-293 -322 0
-293 -323 0
-293 -324 0
-293 -325 0
-293 -326 0
-293 -327 0
-293 -328 0
-293 -329 0
-293 -330 0
-293 -331 0
-293 -332 0
-293 -333 0
-293 -334 0
-293 -335 0
-293 -336 0
-293 -337 0
-293 -338 0
-293 -339 0
-293 -340 0
-293 -341 0
-293 -342 0
-293 -343 0
-293 -344 0
-293 -345 0
-293 -346 0
-293 -347 0
-293 -348 0
-293 -349 0
-293 -350 0
-293 -351 0
-293 -352 0
-293 -353 0
-293 -354 0
-293 -355 0
-293 -356 0
-293 -357 0
-293 -358 0
-293 -359 0
-293 -360 0
-293 -361 0
-293 -362 0
-293 -363 0
-293 -364 0
-293 -365 0
-293 -366 0
-293 -367 0
-293 -368 0
-293 -369 0
-293 -370 0
-293 -371 0
-294 -295 0
-294 -296 0
-294 -297 0
-294 -298 0
-294 -299 0
-294 -300 0
-294 -301 0
-294 -302 0
-294 -303 0
-294 -304 0
-294 -305 0
-294 -306 0
-294 -307 0
-294 -308 0
-294 -309 0
-294 -310 0
-294 -311 0
-294 -312 0
-294 -313 0
-294 -314 0
-294 -315 0
-294 -316 0
-294 -317 0
-294 -318 0
-294 -319 0
-294 -320 0
-294 -321 0
-294 -322 0
-294 -323 0
-294 -324 0
-294 -325 0
-294 -326 0
-294 -327 0
-294 -328 0
-294 -329 0
-294 -330 0
-294 -331 0
-294 -332 0
-294 -333 0
-294 -334 0
-294 -335 0
-294 -336 0
-294 -337 0
-294 -338 0
-294 -339 0
-294 -340 0
-294 -341 0
-294 -342 0
-294 -343 0
-294 -344 0
-294 -345 0
-294 -346 0
-294 -347 0
-294 -348 0
-294 -349 0
-294 -350 0
-294 -351 0
-294 -352 0
-294 -353 0
-294 -354 0
-294 -355 0
-294 -356 0
-294 -357 0
-294 -358 0
-294 -359 0
-294 -360 0
-294 -361 0
-294 -362 0
-294 -363 0
-294 -364 0
-294 -365 0
-294 -366 0
-294 -367 0
-294 -368 0
-294 -369 0
-294 -370 0
-294 -371 0
-295 -296 0
-295 -297 0
-295 -298 0
-295 -299 0
-295 -300 0
-295 -301 0
-295 -302 0
-295 -303 0
-295 -304 0
-295 -305 0
-295 -306 0
-295 -307 0
-295 -308 0
-295 -309 0
-295 -310 0
-295 -311 0
-295 -312 0
-295 -313 0
-295 -314 0
-295 -315 0
-295 -316 0
-295 -317 0
-295 -318 0
-295 -319 0
-295 -320 0
-295 -321 0
-295 -322 0
-295 -323 0
-295 -324 0
-295 -325 0
-295 -326 0
-295 -327 0
-295 -328 0
-295 -329 0
-295 -330 0
-295 -331 0
-295 -332 0
-295 -333 0
-295 -334 0
-295 -335 0
-295 -336 0
-295 -337 0
-295 -338 0
-295 -339 0
-295 -340 0
-295 -341 0
-295 -342 0
-295 -343 0
-295 -344 0
-295 -345 0
-295 -346 0
-295 -347 0
-295 -348 0
-295 -349 0
-295 -350 0
-295 -351 0
-295 -352 0
-295 -353 0
-295 -354 0
-295 -355 0
-295 -356 0
-295 -357 0
-295 -358 0
-295 -359 0
-295 -360 0
-295 -361 0
-295 -362 0
-295 -363 0
-295 -364 0
-295 -365 0
-295 -366 0
-295 -367 0
-295 -368 0
-295 -369 0
-295 -370 0
-295 -371 0
-296 -297 0
-296 -298 0
-296 -299 0
-296 -300 0
-296 -301 0
-296 -302 0
-296 -303 0
-296 -304 0
-296 -305 0
-296 -306 0
-296 -307 0
-296 -308 0
-296 -309 0
-296 -310 0
-296 -311 0
-296 -312 0
-296 -313 0
-296 -314 0
-296 -315 0
-296 -316 0
-296 -317 0
-296 -318 0
-296 -319 0
-296 -320 0
-296 -321 0
-296 -322 0
-296 -323 0
-296 -324 0
-296 -325 0
-296 -326 0
-296 -327 0
-296 -328 0
-296 -329 0
-296 -330 0
-296 -331 0
-296 -332 0
-296 -333 0
-296 -334 0
-296 -335 0
-296 -336 0
-296 -337 0
-296 -338 0
-296 -339 0
-296 -340 0
-296 -341 0
-296 -342 0
-296 -343 0
-296 -344 0
-296 -345 0
-296 -346 0
-296 -347 0
-296 -348 0
-296 -349 0
-296 -350 0
-296 -351 0
-296 -352 0
-296 -353 0
-296 -354 0
-296 -355 0
-296 -356 0
-296 -357 0
-296 -358 0
-296 -359 0
-296 -360 0
-296 -361 0
-296 -362 0
-296 -363 0
-296 -364 0
-296 -365 0
-296 -366 0
-296 -367 0
-296 -368 0
-296 -369 0
-296 -370 0
-296 -371 0
-297 -298 0
-297 -299 0
-297 -300 0
-297 -301 0
-297 -302 0
-297 -303 0
-297 -304 0
-297 -305 0
-297 -306 0
-297 -307 0
-297 -308 0
-297 -309 0
-297 -310 0
-297 -311 0
-297 -312 0
-297 -313 0
-297 -314 0
-297 -315 0
-297 -316 0
-297 -317 0
-297 -318 0
-297 -319 0
-297 -320 0
-297 -321 0
-297 -322 0
-297 -323 0
-297 -324 0
-297 -325 0
-297 -326 0
-297 -327 0
-297 -328 0
-297 -329 0
-297 -330 0
-297 -331 0
-297 -332 0
-297 -333 0
-297 -334 0
-297 -335 0
-297 -336 0
-297 -337 0
-297 -338 0
-297 -339 0
-297 -340 0
-297 -341 0
-297 -342 0
-297 -343 0
-297 -344 0
-297 -345 0
-297 -346 0
-297 -347 0
-297 -348 0
-297 -349 0
-297 -350 0
-297 -351 0
-297 -352 0
-297 -353 0
-297 -354 0
-297 -355 0
-297 -356 0
-297 -357 0
-297 -358 0
-297 -359 0
-297 -360 0
-297 -361 0
-297 -362 0
-297 -363 0
-297 -364 0
-297 -365 0
-297 -366 0
-297 -367 0
-297 -368 0
-297 -369 0
-297 -370 0
-297 -371 0
-298 -299 0
-298 -300 0
-298 -301 0
-298 -302 0
-298 -303 0
-298 -304 0
-298 -305 0
-298 -306 0
-298 -307 0
-298 -308 0
-298 -309 0
-298 -310 0
-298 -311 0
-298 -312 0
-298 -313 0
-298 -314 0
-298 -315 0
-298 -316 0
-298 -317 0
-298 -318 0
-298 -319 0
-298 -320 0
-298 -321 0
-298 -322 0
-298 -323 0
-298 -324 0
-298 -325 0
-298 -326 0
-298 -327 0
-298 -328 0
-298 -329 0
-298 -330 0
-298 -331 0
-298 -332 0
-298 -333 0
-298 -334 0
-298 -335 0
-298 -336 0
-298 -337 0
-298 -338 0
-298 -339 0
-298 -340 0
-298 -341 0
-298 -342 0
-298 -343 0
-298 -344 0
-298 -345 0
-298 -346 0
-298 -347 0
-298 -348 0
-298 -349 0
-298 -350 0
-298 -351 0
-298 -352 0
-298 -353 0
-298 -354 0
-298 -355 0
-298 -356 0
-298 -357 0
-298 -358 0
-298 -359 0
-298 -360 0
-298 -361 0
-298 -362 0
-298 -363 0
-298 -364 0
-298 -365 0
-298 -366 0
-298 -367 0
-298 -368 0
-298 -369 0
-298 -370 0
-298 -371 0
-299 -300 0
-299 -301 0
-299 -302 0
-299 -303 0
-299 -304 0
-299 -305 0
-299 -306 0
-299 -307 0
-299 -308 0
-299 -309 0
-299 -310 0
-299 -311 0
-299 -312 0
-299 -313 0
-299 -314 0
-299 -315 0
-299 -316 0
-299 -317 0
-299 -318 0
-299 -319 0
-299 -320 0
-299 -321 0
-299 -322 0
-299 -323 0
-299 -324 0
-299 -325 0
-299 -326 0
-299 -327 0
-299 -328 0
-299 -329 0
-299 -330 0
-299 -331 0
-299 -332 0
-299 -333 0
-299 -334 0
-299 -335 0
-299 -336 0
-299 -337 0
-299 -338 0
-299 -339 0
-299 -340 0
-299 -341 0
-299 -342 0
-299 -343 0
-299 -344 0
-299 -345 0
-299 -346 0
-299 -347 0
-299 -348 0
-299 -349 0
-299 -350 0
-299 -351 0
-299 -352 0
-299 -353 0
-299 -354 0
-299 -355 0
-299 -356 0
-299 -357 0
-299 -358 0
-299 -359 0
-299 -360 0
-299 -361 0
-299 -362 0
-299 -363 0
-299 -364 0
-299 -365 0
-299 -366 0
-299 -367 0
-299 -368 0
-299 -369 0
-299 -370 0
-299 -371 0
-300 -301 0
-300 -302 0
-300 -303 0
-300 -304 0
-300 -305 0
-300 -306 0
-300 -307 0
-300 -308 0
-300 -309 0
-300 -310 0
-300 -311 0
-300 -312 0
-300 -313 0
-300 -314 0
-300 -315 0
-300 -316 0
-300 -317 0
-300 -318 0
-300 -319 0
-300 -320 0
-300 -321 0
-300 -322 0
-300 -323 0
-300 -324 0
-300 -325 0
-300 -326 0
-300 -327 0
-300 -328 0
-300 -329 0
-300 -330 0
-300 -331 0
-300 -332 0
-300 -333 0
-300 -334 0
-300 -335 0
-300 -336 0
-300 -337 0
-300 -338 0
-300 -339 0
-300 -340 0
-300 -341 0
-300 -342 0
-300 -343 0
-300 -344 0
-300 -345 0
-300 -346 0
-300 -347 0
-300 -348 0
-300 -349 0
-300 -350 0
-300 -351 0
-300 -352 0
-300 -353 0
-300 -354 0
-300 -355 0
-300 -356 0
-300 -357 0
-300 -358 0
-300 -359 0
-300 -360 0
-300 -361 0
-300 -362 0
-300 -363 0
-300 -364 0
-300 -365 0
-300 -366 0
-300 -367 0
-300 -368 0
-300 -369 0
-300 -370 0
-300 -371 0
-301 -302 0
-301 -303 0
-301 -304 0
-301 -305 0
-301 -306 0
-301 -307 0
-301 -308 0
-301 -309 0
-301 -310 0
-301 -311 0
-301 -312 0
-301 -313 0
-301 -314 0
-301 -315 0
-301 -316 0
-301 -317 0
-301 -318 0
-301 -319 0
-301 -320 0
-301 -321 0
-301 -322 0
-301 -323 0
-301 -324 0
-301 -325 0
-301 -326 0
-301 -327 0
-301 -328 0
-301 -329 0
-301 -330 0
-301 -331 0
-301 -332 0
-301 -333 0
-301 -334 0
-301 -335 0
-301 -336 0
-301 -337 0
-301 -338 0
-301 -339 0
-301 -340 0
-301 -341 0
-301 -342 0
-301 -343 0
-301 -344 0
-301 -345 0
-301 -346 0
-301 -347 0
-301 -348 0
-301 -349 0
-301 -350 0
-301 -351 0
-301 -352 0
-301 -353 0
-301 -354 0
-301 -355 0
-301 -356 0
-301 -357 0
-301 -358 0
-301 -359 0
-301 -360 0
-301 -361 0
-301 -362 0
-301 -363 0
-301 -364 0
-301 -365 0
-301 -366 0
-301 -367 0
-301 -368 0
-301 -369 0
-301 -370 0
-301 -371 0
-302 -303 0
-302 -304 0
-302 -305 0
-302 -306 0
-302 -307 0
-302 -308 0
-302 -309 0
-302 -310 0
-302 -311 0
-302 -312 0
-302 -313 0
-302 -314 0
-302 -315 0
-302 -316 0
-302 -317 0
-302 -318 0
-302 -319 0
-302 -320 0
-302 -321 0
-302 -322 0
-302 -323 0
-302 -324 0
-302 -325 0
-302 -326 0
-302 -327 0
-302 -328 0
-302 -329 0
-302 -330 0
-302 -331 0
-302 -332 0
-302 -333 0
-302 -334 0
-302 -335 0
-302 -336 0
-302 -337 0
-302 -338 0
-302 -339 0
-302 -340 0
-302 -341 0
-302 -342 0
-302 -343 0
-302 -344 0
-302 -345 0
-302 -346 0
-302 -347 0
-302 -348 0
-302 -349 0
-302 -350 0
-302 -351 0
-302 -352 0
-302 -353 0
-302 -354 0
-302 -355 0
-302 -356 0
-302 -357 0
-302 -358 0
-302 -359 0
-302 -360 0
-302 -361 0
-302 -362 0
-302 -363 0
-302 -364 0
-302 -365 0
-302 -366 0
-302 -367 0
-302 -368 0
-302 -369 0
-302 -370 0
-302 -371 0
-303 -304 0
-303 -305 0
-303 -306 0
-303 -307 0
-303 -308 0
-303 -309 0
-303 -310 0
-303 -311 0
-303 -312 0
-303 -313 0
-303 -314 0
-303 -315 0
-303 -316 0
-303 -317 0
-303 -318 0
-303 -319 0
-303 -320 0
-303 -321 0
-303 -322 0
-303 -323 0
-303 -324 0
-303 -325 0
-303 -326 0
-303 -327 0
-303 -328 0
-303 -329 0
-303 -330 0
-303 -331 0
-303 -332 0
-303 -333 0
-303 -334 0
-303 -335 0
-303 -336 0
-303 -337 0
-303 -338 0
-303 -339 0
-303 -340 0
-303 -341 0
-303 -342 0
-303 -343 0
-303 -344 0
-303 -345 0
-303 -346 0
-303 -347 0
-303 -348 0
-303 -349 0
-303 -350 0
-303 -351 0
-303 -352 0
-303 -353 0
-303 -354 0
-303 -355 0
-303 -356 0
-303 -357 0
-303 -358 0
-303 -359 0
-303 -360 0
-303 -361 0
-303 -362 0
-303 -363 0
-303 -364 0
-303 -365 0
-303 -366 0
-303 -367 0
-303 -368 0
-303 -369 0
-303 -370 0
-303 -371 0
-304 -305 0
-304 -306 0
-304 -307 0
-304 -308 0
-304 -309 0
-304 -310 0
-304 -311 0
-304 -312 0
-304 -313 0
-304 -314 0
-304 -315 0
-304 -316 0
-304 -317 0
-304 -318 0
-304 -319 0
-304 -320 0
-304 -321 0
-304 -322 0
-304 -323 0
-304 -324 0
-304 -325 0
-304 -326 0
-304 -327 0
-304 -328 0
-304 -329 0
-304 -330 0
-304 -331 0
-304 -332 0
-304 -333 0
-304 -334 0
-304 -335 0
-304 -336 0
-304 -337 0
-304 -338 0
-304 -339 0
-304 -340 0
-304 -341 0
-304 -342 0
-304 -343 0
-304 -344 0
-304 -345 0
-304 -346 0
-304 -347 0
-304 -348 0
-304 -349 0
-304 -350 0
-304 -351 0
-304 -352 0
-304 -353 0
-304 -354 0
-304 -355 0
-304 -356 0
-304 -357 0
-304 -358 0
-304 -359 0
-304 -360 0
-304 -361 0
-304 -362 0
-304 -363 0
-304 -364 0
-304 -365 0
-304 -366 0
-304 -367 0
-304 -368 0
-304 -369 0
-304 -370 0
-304 -371 0
-305 -306 0
-305 -307 0
-305 -308 0
-305 -309 0
-305 -310 0
-305 -311 0
-305 -312 0
-305 -313 0
-305 -314 0
-305 -315 0
-305 -316 0
-305 -317 0
-305 -318 0
-305 -319 0
-305 -320 0
-305 -321 0
-305 -322 0
-305 -323 0
-305 -324 0
-305 -325 0
-305 -326 0
-305 -327 0
-305 -328 0
-305 -329 0
-305 -330 0
-305 -331 0
-305 -332 0
-305 -333 0
-305 -334 0
-305 -335 0
-305 -336 0
-305 -337 0
-305 -338 0
-305 -339 0
-305 -340 0
-305 -341 0
-305 -342 0
-305 -343 0
-305 -344 0
-305 -345 0
-305 -346 0
-305 -347 0
-305 -348 0
-305 -349 0
-305 -350 0
-305 -351 0
-305 -352 0
-305 -353 0
-305 -354 0
-305 -355 0
-305 -356 0
-305 -357 0
-305 -358 0
-305 -359 0
-305 -360 0
-305 -361 0
-305 -362 0
-305 -363 0
-305 -364 0
-305 -365 0
-305 -366 0
-305 -367 0
-305 -368 0
-305 -369 0
-305 -370 0
-305 -371 0
-306 -307 0
-306 -308 0
-306 -309 0
-306 -310 0
-306 -311 0
-306 -312 0
-306 -313 0
-306 -314 0
-306 -315 0
-306 -316 0
-306 -317 0
-306 -318 0
-306 -319 0
-306 -320 0
-306 -321 0
-306 -322 0
-306 -323 0
-306 -324 0
-306 -325 0
-306 -326 0
-306 -327 0
-306 -328 0
-306 -329 0
-306 -330 0
-306 -331 0
-306 -332 0
-306 -333 0
-306 -334 0
-306 -335 0
-306 -336 0
-306 -337 0
-306 -338 0
-306 -339 0
-306 -340 0
-306 -341 0
-306 -342 0
-306 -343 0
-306 -344 0
-306 -345 0
-306 -346 0
-306 -347 0
-306 -348 0
-306 -349 0
-306 -350 0
-306 -351 0
-306 -352 0
-306 -353 0
-306 -354 0
-306 -355 0
-306 -356 0
-306 -357 0
-306 -358 0
-306 -359 0
-306 -360 0
-306 -361 0
-306 -362 0
-306 -363 0
-306 -364 0
-306 -365 0
-306 -366 0
-306 -367 0
-306 -368 0
-306 -369 0
-306 -370 0
-306 -371 0
-307 -308 0
-307 -309 0
-307 -310 0
-307 -311 0
-307 -312 0
-307 -313 0
-307 -314 0
-307 -315 0
-307 -316 0
-307 -317 0
-307 -318 0
-307 -319 0
-307 -320 0
-307 -321 0
-307 -322 0
-307 -323 0
-307 -324 0
-307 -325 0
-307 -326 0
-307 -327 0
-307 -328 0
-307 -329 0
-307 -330 0
-307 -331 0
-307 -332 0
-307 -333 0
-307 -334 0
-307 -335 0
-307 -336 0
-307 -337 0
-307 -338 0
-307 -339 0
-307 -340 0
-307 -341 0
-307 -342 0
-307 -343 0
-307 -344 0
-307 -345 0
-307 -346 0
-307 -347 0
-307 -348 0
-307 -349 0
-307 -350 0
-307 -351 0
-307 -352 0
-307 -353 0
-307 -354 0
-307 -355 0
-307 -356 0
-307 -357 0
-307 -358 0
-307 -359 0
-307 -360 0
-307 -361 0
-307 -362 0
-307 -363 0
-307 -364 0
-307 -365 0
-307 -366 0
-307 -367 0
-307 -368 0
-307 -369 0
-307 -370 0
-307 -371 0
-308 -309 0
-308 -310 0
-308 -311 0
-308 -312 0
-308 -313 0
-308 -314 0
-308 -315 0
-308 -316 0
-308 -317 0
-308 -318 0
-308 -319 0
-308 -320 0
-308 -321 0
-308 -322 0
-308 -323 0
-308 -324 0
-308 -325 0
-308 -326 0
-308 -327 0
-308 -328 0
-308 -329 0
-308 -330 0
-308 -331 0
-308 -332 0
-308 -333 0
-308 -334 0
-308 -335 0
-308 -336 0
-308 -337 0
-308 -338 0
-308 -339 0
-308 -340 0
-308 -341 0
-308 -342 0
-308 -343 0
-308 -344 0
-308 -345 0
-308 -346 0
-308 -347 0
-308 -348 0
-308 -349 0
-308 -350 0
-308 -351 0
-308 -352 0
-308 -353 0
-308 -354 0
-308 -355 0
-308 -356 0
-308 -357 0
-308 -358 0
-308 -359 0
-308 -360 0
-308 -361 0
-308 -362 0
-308 -363 0
-308 -364 0
-308 -365 0
-308 -366 0
-308 -367 0
-308 -368 0
-308 -369 0
-308 -370 0
-308 -371 0
-309 -310 0
-309 -311 0
-309 -312 0
-309 -313 0
-309 -314 0
-309 -315 0
-309 -316 0
-309 -317 0
-309 -318 0
-309 -319 0
-309 -320 0
-309 -321 0
-309 -322 0
-309 -323 0
-309 -324 0
-309 -325 0
-309 -326 0
-309 -327 0
-309 -328 0
-309 -329 0
-309 -330 0
-309 -331 0
-309 -332 0
-309 -333 0
-309 -334 0
-309 -335 0
-309 -336 0
-309 -337 0
-309 -338 0
-309 -339 0
-309 -340 0
-309 -341 0
-309 -342 0
-309 -343 0
-309 -344 0
-309 -345 0
-309 -346 0
-309 -347 0
-309 -348 0
-309 -349 0
-309 -350 0
-309 -351 0
-309 -352 0
-309 -353 0
-309 -354 0
-309 -355 0
-309 -356 0
-309 -357 0
-309 -358 0
-309 -359 0
-309 -360 0
-309 -361 0
-309 -362 0
-309 -363 0
-309 -364 0
-309 -365 0
-309 -366 0
-309 -367 0
-309 -368 0
-309 -369 0
-309 -370 0
-309 -371 0
-310 -311 0
-310 -312 0
-310 -313 0
-310 -314 0
-310 -315 0
-310 -316 0
-310 -317 0
-310 -318 0
-310 -319 0
-310 -320 0
-310 -321 0
-310 -322 0
-310 -323 0
-310 -324 0
-310 -325 0
-310 -326 0
-310 -327 0
-310 -328 0
-310 -329 0
-310 -330 0
-310 -331 0
-310 -332 0
-310 -333 0
-310 -334 0
-310 -335 0
-310 -336 0
-310 -337 0
-310 -338 0
-310 -339 0
-310 -340 0
-310 -341 0
-310 -342 0
-310 -343 0
-310 -344 0
-310 -345 0
-310 -346 0
-310 -347 0
-310 -348 0
-310 -349 0
-310 -350 0
-310 -351 0
-310 -352 0
-310 -353 0
-310 -354 0
-310 -355 0
-310 -356 0
-310 -357 0
-310 -358 0
-310 -359 0
-310 -360 0
-310 -361 0
-310 -362 0
-310 -363 0
-310 -364 0
-310 -365 0
-310 -366 0
-310 -367 0
-310 -368 0
-310 -369 0
-310 -370 0
-310 -371 0
-311 -312 0
-311 -313 0
-311 -314 0
-311 -315 0
-311 -316 0
-311 -317 0
-311 -318 0
-311 -319 0
-311 -320 0
-311 -321 0
-311 -322 0
-311 -323 0
-311 -324 0
-311 -325 0
-311 -326 0
-311 -327 0
-311 -328 0
-311 -329 0
-311 -330 0
-311 -331 0
-311 -332 0
-311 -333 0
-311 -334 0
-311 -335 0
-311 -336 0
-311 -337 0
-311 -338 0
-311 -339 0
-311 -340 0
-311 -341 0
-311 -342 0
-311 -343 0
-311 -344 0
-311 -345 0
-311 -346 0
-311 -347 0
-311 -348 0
-311 -349 0
-311 -350 0
-311 -351 0
-311 -352 0
-311 -353 0
-311 -354 0
-311 -355 0
-311 -356 0
-311 -357 0
-311 -358 0
-311 -359 0
-311 -360 0
-311 -361 0
-311 -362 0
-311 -363 0
-311 -364 0
-311 -365 0
-311 -366 0
-311 -367 0
-311 -368 0
-311 -369 0
-311 -370 0
-311 -371 0
-312 -313 0
-312 -314 0
-312 -315 0
-312 -316 0
-312 -317 0
-312 -318 0
-312 -319 0
-312 -320 0
-312 -321 0
-312 -322 0
-312 -323 0
-312 -324 0
-312 -325 0
-312 -326 0
-312 -327 0
-312 -328 0
-312 -329 0
-312 -330 0
-312 -331 0
-312 -332 0
-312 -333 0
-312 -334 0
-312 -335 0
-312 -336 0
-312 -337 0
-312 -338 0
-312 -339 0
-312 -340 0
-312 -341 0
-312 -342 0
-312 -343 0
-312 -344 0
-312 -345 0
-312 -346 0
-312 -347 0
-312 -348 0
-312 -349 0
-312 -350 0
-312 -351 0
-312 -352 0
-312 -353 0
-312 -354 0
-312 -355 0
-312 -356 0
-312 -357 0
-312 -358 0
-312 -359 0
-312 -360 0
-312 -361 0
-312 -362 0
-312 -363 0
-312 -364 0
-312 -365 0
-312 -366 0
-312 -367 0
-312 -368 0
-312 -369 0
-312 -370 0
-312 -371 0
-313 -314 0
-313 -315 0
-313 -316 0
-313 -317 0
-313 -318 0
-313 -319 0
-313 -320 0
-313 -321 0
-313 -322 0
-313 -323 0
-313 -324 0
-313 -325 0
-313 -326 0
-313 -327 0
-313 -328 0
-313 -329 0
-313 -330 0
-313 -331 0
-313 -332 0
-313 -333 0
-313 -334 0
-313 -335 0
-313 -336 0
-313 -337 0
-313 -338 0
-313 -339 0
-313 -340 0
-313 -341 0
-313 -342 0
-313 -343 0
-313 -344 0
-313 -345 0
-313 -346 0
-313 -347 0
-313 -348 0
-313 -349 0
-313 -350 0
-313 -351 0
-313 -352 0
-313 -353 0
-313 -354 0
-313 -355 0
-313 -356 0
-313 -357 0
-313 -358 0
-313 -359 0
-313 -360 0
-313 -361 0
-313 -362 0
-313 -363 0
-313 -364 0
-313 -365 0
-313 -366 0
-313 -367 0
-313 -368 0
-313 -369 0
-313 -370 0
-313 -371 0
-314 -315 0
-314 -316 0
-314 -317 0
-314 -318 0
-314 -319 0
-314 -320 0
-314 -321 0
-314 -322 0
-314 -323 0
-314 -324 0
-314 -325 0
-314 -326 0
-314 -327 0
-314 -328 0
-314 -329 0
-314 -330 0
-314 -331 0
-314 -332 0
-314 -333 0
-314 -334 0
-314 -335 0
-314 -336 0
-314 -337 0
-314 -338 0
-314 -339 0
-314 -340 0
-314 -341 0
-314 -342 0
-314 -343 0
-314 -344 0
-314 -345 0
-314 -346 0
-314 -347 0
-314 -348 0
-314 -349 0
-314 -350 0
-314 -351 0
-314 -352 0
-314 -353 0
-314 -354 0
-314 -355 0
-314 -356 0
-314 -357 0
-314 -358 0
-314 -359 0
-314 -360 0
-314 -361 0
-314 -362 0
-314 -363 0
-314 -364 0
-314 -365 0
-314 -366 0
-314 -367 0
-314 -368 0
-314 -369 0
-314 -370 0
-314 -371 0
-315 -316 0
-315 -317 0
-315 -318 0
-315 -319 0
-315 -320 0
-315 -321 0
-315 -322 0
-315 -323 0
-315 -324 0
-315 -325 0
-315 -326 0
-315 -327 0
-315 -328 0
-315 -329 0
-315 -330 0
-315 -331 0
-315 -332 0
-315 -333 0
-315 -334 0
-315 -335 0
-315 -336 0
-315 -337 0
-315 -338 0
-315 -339 0
-315 -340 0
-315 -341 0
-315 -342 0
-315 -343 0
-315 -344 0
-315 -345 0
-315 -346 0
-315 -347 0
-315 -348 0
-315 -349 0
-315 -350 0
-315 -351 0
-315 -352 0
-315 -353 0
-315 -354 0
-315 -355 0
-315 -356 0
-315 -357 0
-315 -358 0
-315 -359 0
-315 -360 0
-315 -361 0
-315 -362 0
-315 -363 0
-315 -364 0
-315 -365 0
-315 -366 0
-315 -367 0
-315 -368 0
-315 -369 0
-315 -370 0
-315 -371 0
-316 -317 0
-316 -318 0
-316 -319 0
-316 -320 0
-316 -321 0
-316 -322 0
-316 -323 0
-316 -324 0
-316 -325 0
-316 -326 0
-316 -327 0
-316 -328 0
-316 -329 0
-316 -330 0
-316 -331 0
-316 -332 0
-316 -333 0
-316 -334 0
-316 -335 0
-316 -336 0
-316 -337 0
-316 -338 0
-316 -339 0
-316 -340 0
-316 -341 0
-316 -342 0
-316 -343 0
-316 -344 0
-316 -345 0
-316 -346 0
-316 -347 0
-316 -348 0
-316 -349 0
-316 -350 0
-316 -351 0
-316 -352 0
-316 -353 0
-316 -354 0
-316 -355 0
-316 -356 0
-316 -357 0
-316 -358 0
-316 -359 0
-316 -360 0
-316 -361 0
-316 -362 0
-316 -363 0
-316 -364 0
-316 -365 0
-316 -366 0
-316 -367 0
-316 -368 0
-316 -369 0
-316 -370 0
-316 -371 0
-317 -318 0
-317 -319 0
-317 -320 0
-317 -321 0
-317 -322 0
-317 -323 0
-317 -324 0
-317 -325 0
-317 -326 0
-317 -327 0
-317 -328 0
-317 -329 0
-317 -330 0
-317 -331 0
-317 -332 0
-317 -333 0
-317 -334 0
-317 -335 0
-317 -336 0
-317 -337 0
-317 -338 0
-317 -339 0
-317 -340 0
-317 -341 0
-317 -342 0
-317 -343 0
-317 -344 0
-317 -345 0
-317 -346 0
-317 -347 0
-317 -348 0
-317 -349 0
-317 -350 0
-317 -351 0
-317 -352 0
-317 -353 0
-317 -354 0
-317 -355 0
-317 -356 0
-317 -357 0
-317 -358 0
-317 -359 0
-317 -360 0
-317 -361 0
-317 -362 0
-317 -363 0
-317 -364 0
-317 -365 0
-317 -366 0
-317 -367 0
-317 -368 0
-317 -369 0
-317 -370 0
-317 -371 0
-318 -319 0
-318 -320 0
-318 -321 0
-318 -322 0
-318 -323 0
-318 -324 0
-318 -325 0
-318 -326 0
-318 -327 0
-318 -328 0
-318 -329 0
-318 -330 0
-318 -331 0
-318 -332 0
-318 -333 0
-318 -334 0
-318 -335 0
-318 -336 0
-318 -337 0
-318 -338 0
-318 -339 0
-318 -340 0
-318 -341 0
-318 -342 0
-318 -343 0
-318 -344 0
-318 -345 0
-318 -346 0
-318 -347 0
-318 -348 0
-318 -349 0
-318 -350 0
-318 -351 0
-318 -352 0
-318 -353 0
-318 -354 0
-318 -355 0
-318 -356 0
-318 -357 0
-318 -358 0
-318 -359 0
-318 -360 0
-318 -361 0
-318 -362 0
-318 -363 0
-318 -364 0
-318 -365 0
-318 -366 0
-318 -367 0
-318 -368 0
-318 -369 0
-318 -370 0
-318 -371 0
-319 -320 0
-319 -321 0
-319 -322 0
-319 -323 0
-319 -324 0
-319 -325 0
-319 -326 0
-319 -327 0
-319 -328 0
-319 -329 0
-319 -330 0
-319 -331 0
-319 -332 0
-319 -333 0
-319 -334 0
-319 -335 0
-319 -336 0
-319 -337 0
-319 -338 0
-319 -339 0
-319 -340 0
-319 -341 0
-319 -342 0
-319 -343 0
-319 -344 0
-319 -345 0
-319 -346 0
-319 -347 0
-319 -348 0
-319 -349 0
-319 -350 0
-319 -351 0
-319 -352 0
-319 -353 0
-319 -354 0
-319 -355 0
-319 -356 0
-319 -357 0
-319 -358 0
-319 -359 0
-319 -360 0
-319 -361 0
-319 -362 0
-319 -363 0
-319 -364 0
-319 -365 0
-319 -366 0
-319 -367 0
-319 -368 0
-319 -369 0
-319 -370 0
-319 -371 0
-320 -321 0
-320 -322 0
-320 -323 0
-320 -324 0
-320 -325 0
-320 -326 0
-320 -327 0
-320 -328 0
-320 -329 0
-320 -330 0
-320 -331 0
-320 -332 0
-320 -333 0
-320 -334 0
-320 -335 0
-320 -336 0
-320 -337 0
-320 -338 0
-320 -339 0
-320 -340 0
-320 -341 0
-320 -342 0
-320 -343 0
-320 -344 0
-320 -345 0
-320 -346 0
-320 -347 0
-320 -348 0
-320 -349 0
-320 -350 0
-320 -351 0
-320 -352 0
-320 -353 0
-320 -354 0
-320 -355 0
-320 -356 0
-320 -357 0
-320 -358 0
-320 -359 0
-320 -360 0
-320 -361 0
-320 -362 0
-320 -363 0
-320 -364 0
-320 -365 0
-320 -366 0
-320 -367 0
-320 -368 0
-320 -369 0
-320 -370 0
-320 -371 0
-321 -322 0
-321 -323 0
-321 -324 0
-321 -325 0
-321 -326 0
-321 -327 0
-321 -328 0
-321 -329 0
-321 -330 0
-321 -331 0
-321 -332 0
-321 -333 0
-321 -334 0
-321 -335 0
-321 -336 0
-321 -337 0
-321 -338 0
-321 -339 0
-321 -340 0
-321 -341 0
-321 -342 0
-321 -343 0
-321 -344 0
-321 -345 0
-321 -346 0
-321 -347 0
-321 -348 0
-321 -349 0
-321 -350 0
-321 -351 0
-321 -352 0
-321 -353 0
-321 -354 0
-321 -355 0
-321 -356 0
-321 -357 0
-321 -358 0
-321 -359 0
-321 -360 0
-321 -361 0
-321 -362 0
-321 -363 0
-321 -364 0
-321 -365 0
-321 -366 0
-321 -367 0
-321 -368 0
-321 -369 0
-321 -370 0
-321 -371 0
-322 -323 0
-322 -324 0
-322 -325 0
-322 -326 0
-322 -327 0
-322 -328 0
-322 -329 0
-322 -330 0
-322 -331 0
-322 -332 0
-322 -333 0
-322 -334 0
-322 -335 0
-322 -336 0
-322 -337 0
-322 -338 0
-322 -339 0
-322 -340 0
-322 -341 0
-322 -342 0
-322 -343 0
-322 -344 0
-322 -345 0
-322 -346 0
-322 -347 0
-322 -348 0
-322 -349 0
-322 -350 0
-322 -351 0
-322 -352 0
-322 -353 0
-322 -354 0
-322 -355 0
-322 -356 0
-322 -357 0
-322 -358 0
-322 -359 0
-322 -360 0
-322 -361 0
-322 -362 0
-322 -363 0
-322 -364 0
-322 -365 0
-322 -366 0
-322 -367 0
-322 -368 0
-322 -369 0
-322 -370 0
-322 -371 0
-323 -324 0
-323 -325 0
-323 -326 0
-323 -327 0
-323 -328 0
-323 -329 0
-323 -330 0
-323 -331 0
-323 -332 0
-323 -333 0
-323 -334 0
-323 -335 0
-323 -336 0
-323 -337 0
-323 -338 0
-323 -339 0
-323 -340 0
-323 -341 0
-323 -342 0
-323 -343 0
-323 -344 0
-323 -345 0
-323 -346 0
-323 -347 0
-323 -348 0
-323 -349 0
-323 -350 0
-323 -351 0
-323 -352 0
-323 -353 0
-323 -354 0
-323 -355 0
-323 -356 0
-323 -357 0
-323 -358 0
-323 -359 0
-323 -360 0
-323 -361 0
-323 -362 0
-323 -363 0
-323 -364 0
-323 -365 0
-323 -366 0
-323 -367 0
-323 -368 0
-323 -369 0
-323 -370 0
-323 -371 0
-324 -325 0
-324 -326 0
-324 -327 0
-324 -328 0
-324 -329 0
-324 -330 0
-324 -331 0
-324 -332 0
-324 -333 0
-324 -334 0
-324 -335 0
-324 -336 0
-324 -337 0
-324 -338 0
-324 -339 0
-324 -340 0
-324 -341 0
-324 -342 0
-324 -343 0
-324 -344 0
-324 -345 0
-324 -346 0
-324 -347 0
-324 -348 0
-324 -349 0
-324 -350 0
-324 -351 0
-324 -352 0
-324 -353 0
-324 -354 0
-324 -355 0
-324 -356 0
-324 -357 0
-324 -358 0
-324 -359 0
-324 -360 0
-324 -361 0
-324 -362 0
-324 -363 0
-324 -364 0
-324 -365 0
-324 -366 0
-324 -367 0
-324 -368 0
-324 -369 0
-324 -370 0
-324 -371 0
-325 -326 0
-325 -327 0
-325 -328 0
-325 -329 0
-325 -330 0
-325 -331 0
-325 -332 0
-325 -333 0
-325 -334 0
-325 -335 0
-325 -336 0
-325 -337 0
-325 -338 0
-325 -339 0
-325 -340 0
-325 -341 0
-325 -342 0
-325 -343 0
-325 -344 0
-325 -345 0
-325 -346 0
-325 -347 0
-325 -348 0
-325 -349 0
-325 -350 0
-325 -351 0
-325 -352 0
-325 -353 0
-325 -354 0
-325 -355 0
-325 -356 0
-325 -357 0
-325 -358 0
-325 -359 0
-325 -360 0
-325 -361 0
-325 -362 0
-325 -363 0
-325 -364 0
-325 -365 0
-325 -366 0
-325 -367 0
-325 -368 0
-325 -369 0
-325 -370 0
-325 -371 0
-326 -327 0
-326 -328 0
-326 -329 0
-326 -330 0
-326 -331 0
-326 -332 0
-326 -333 0
-326 -334 0
-326 -335 0
-326 -336 0
-326 -337 0
-326 -338 0
-326 -339 0
-326 -340 0
-326 -341 0
-326 -342 0
-326 -343 0
-326 -344 0
-326 -345 0
-326 -346 0
-326 -347 0
-326 -348 0
-326 -349 0
-326 -350 0
-326 -351 0
-326 -352 0
-326 -353 0
-326 -354 0
-326 -355 0
-326 -356 0
-326 -357 0
-326 -358 0
-326 -359 0
-326 -360 0
-326 -361 0
-326 -362 0
-326 -363 0
-326 -364 0
-326 -365 0
-326 -366 0
-326 -367 0
-326 -368 0
-326 -369 0
-326 -370 0
-326 -371 0
-327 -328 0
-327 -329 0
-327 -330 0
-327 -331 0
-327 -332 0
-327 -333 0
-327 -334 0
-327 -335 0
-327 -336 0
-327 -337 0
-327 -338 0
-327 -339 0
-327 -340 0
-327 -341 0
-327 -342 0
-327 -343 0
-327 -344 0
-327 -345 0
-327 -346 0
-327 -347 0
-327 -348 0
-327 -349 0
-327 -350 0
-327 -351 0
-327 -352 0
-327 -353 0
-327 -354 0
-327 -355 0
-327 -356 0
-327 -357 0
-327 -358 0
-327 -359 0
-327 -360 0
-327 -361 0
-327 -362 0
-327 -363 0
-327 -364 0
-327 -365 0
-327 -366 0
-327 -367 0
-327 -368 0
-327 -369 0
-327 -370 0
-327 -371 0
-328 -329 0
-328 -330 0
-328 -331 0
-328 -332 0
-328 -333 0
-328 -334 0
-328 -335 0
-328 -336 0
-328 -337 0
-328 -338 0
-328 -339 0
-328 -340 0
-328 -341 0
-328 -342 0
-328 -343 0
-328 -344 0
-328 -345 0
-328 -346 0
-328 -347 0
-328 -348 0
-328 -349 0
-328 -350 0
-328 -351 0
-328 -352 0
-328 -353 0
-328 -354 0
-328 -355 0
-328 -356 0
-328 -357 0
-328 -358 0
-328 -359 0
-328 -360 0
-328 -361 0
-328 -362 0
-328 -363 0
-328 -364 0
-328 -365 0
-328 -366 0
-328 -367 0
-328 -368 0
-328 -369 0
-328 -370 0
-328 -371 0
-329 -330 0
-329 -331 0
-329 -332 0
-329 -333 0
-329 -334 0
-329 -335 0
-329 -336 0
-329 -337 0
-329 -338 0
-329 -339 0
-329 -340 0
-329 -341 0
-329 -342 0
-329 -343 0
-329 -344 0
-329 -345 0
-329 -346 0
-329 -347 0
-329 -348 0
-329 -349 0
-329 -350 0
-329 -351 0
-329 -352 0
-329 -353 0
-329 -354 0
-329 -355 0
-329 -356 0
-329 -357 0
-329 -358 0
-329 -359 0
-329 -360 0
-329 -361 0
-329 -362 0
-329 -363 0
-329 -364 0
-329 -365 0
-329 -366 0
-329 -367 0
-329 -368 0
-329 -369 0
-329 -370 0
-329 -371 0
-330 -331 0
-330 -332 0
-330 -333 0
-330 -334 0
-330 -335 0
-330 -336 0
-330 -337 0
-330 -338 0
-330 -339 0
-330 -340 0
-330 -341 0
-330 -342 0
-330 -343 0
-330 -344 0
-330 -345 0
-330 -346 0
-330 -347 0
-330 -348 0
-330 -349 0
-330 -350 0
-330 -351 0
-330 -352 0
-330 -353 0
-330 -354 0
-330 -355 0
-330 -356 0
-330 -357 0
-330 -358 0
-330 -359 0
-330 -360 0
-330 -361 0
-330 -362 0
-330 -363 0
-330 -364 0
-330 -365 0
-330 -366 0
-330 -367 0
-330 -368 0
-330 -369 0
-330 -370 0
-330 -371 0
-331 -332 0
-331 -333 0
-331 -334 0
-331 -335 0
-331 -336 0
-331 -337 0
-331 -338 0
-331 -339 0
-331 -340 0
-331 -341 0
-331 -342 0
-331 -343 0
-331 -344 0
-331 -345 0
-331 -346 0
-331 -347 0
-331 -348 0
-331 -349 0
-331 -350 0
-331 -351 0
-331 -352 0
-331 -353 0
-331 -354 0
-331 -355 0
-331 -356 0
-331 -357 0
-331 -358 0
-331 -359 0
-331 -360 0
-331 -361 0
-331 -362 0
-331 -363 0
-331 -364 0
-331 -365 0
-331 -366 0
-331 -367 0
-331 -368 0
-331 -369 0
-331 -370 0
-331 -371 0
-332 -333 0
-332 -334 0
-332 -335 0
-332 -336 0
-332 -337 0
-332 -338 0
-332 -339 0
-332 -340 0
-332 -341 0
-332 -342 0
-332 -343 0
-332 -344 0
-332 -345 0
-332 -346 0
-332 -347 0
-332 -348 0
-332 -349 0
-332 -350 0
-332 -351 0
-332 -352 0
-332 -353 0
-332 -354 0
-332 -355 0
-332 -356 0
-332 -357 0
-332 -358 0
-332 -359 0
-332 -360 0
-332 -361 0
-332 -362 0
-332 -363 0
-332 -364 0
-332 -365 0
-332 -366 0
-332 -367 0
-332 -368 0
-332 -369 0
-332 -370 0
-332 -371 0
-333 -334 0
-333 -335 0
-333 -336 0
-333 -337 0
-333 -338 0
-333 -339 0
-333 -340 0
-333 -341 0
-333 -342 0
-333 -343 0
-333 -344 0
-333 -345 0
-333 -346 0
-333 -347 0
-333 -348 0
-333 -349 0
-333 -350 0
-333 -351 0
-333 -352 0
-333 -353 0
-333 -354 0
-333 -355 0
-333 -356 0
-333 -357 0
-333 -358 0
-333 -359 0
-333 -360 0
-333 -361 0
-333 -362 0
-333 -363 0
-333 -364 0
-333 -365 0
-333 -366 0
-333 -367 0
-333 -368 0
-333 -369 0
-333 -370 0
-333 -371 0
-334 -335 0
-334 -336 0
-334 -337 0
-334 -338 0
-334 -339 0
-334 -340 0
-334 -341 0
-334 -342 0
-334 -343 0
-334 -344 0
-334 -345 0
-334 -346 0
-334 -347 0
-334 -348 0
-334 -349 0
-334 -350 0
-334 -351 0
-334 -352 0
-334 -353 0
-334 -354 0
-334 -355 0
-334 -356 0
-334 -357 0
-334 -358 0
-334 -359 0
-334 -360 0
-334 -361 0
-334 -362 0
-334 -363 0
-334 -364 0
-334 -365 0
-334 -366 0
-334 -367 0
-334 -368 0
-334 -369 0
-334 -370 0
-334 -371 0
-335 -336 0
-335 -337 0
-335 -338 0
-335 -339 0
-335 -340 0
-335 -341 0
-335 -342 0
-335 -343 0
-335 -344 0
-335 -345 0
-335 -346 0
-335 -347 0
-335 -348 0
-335 -349 0
-335 -350 0
-335 -351 0
-335 -352 0
-335 -353 0
-335 -354 0
-335 -355 0
-335 -356 0
-335 -357 0
-335 -358 0
-335 -359 0
-335 -360 0
-335 -361 0
-335 -362 0
-335 -363 0
-335 -364 0
-335 -365 0
-335 -366 0
-335 -367 0
-335 -368 0
-335 -369 0
-335 -370 0
-335 -371 0
-336 -337 0
-336 -338 0
-336 -339 0
-336 -340 0
-336 -341 0
-336 -342 0
-336 -343 0
-336 -344 0
-336 -345 0
-336 -346 0
-336 -347 0
-336 -348 0
-336 -349 0
-336 -350 0
-336 -351 0
-336 -352 0
-336 -353 0
-336 -354 0
-336 -355 0
-336 -356 0
-336 -357 0
-336 -358 0
-336 -359 0
-336 -360 0
-336 -361 0
-336 -362 0
-336 -363 0
-336 -364 0
-336 -365 0
-336 -366 0
-336 -367 0
-336 -368 0
-336 -369 0
-336 -370 0
-336 -371 0
-337 -338 0
-337 -339 0
-337 -340 0
-337 -341 0
-337 -342 0
-337 -343 0
-337 -344 0
-337 -345 0
-337 -346 0
-337 -347 0
-337 -348 0
-337 -349 0
-337 -350 0
-337 -351 0
-337 -352 0
-337 -353 0
-337 -354 0
-337 -355 0
-337 -356 0
-337 -357 0
-337 -358 0
-337 -359 0
-337 -360 0
-337 -361 0
-337 -362 0
-337 -363 0
-337 -364 0
-337 -365 0
-337 -366 0
-337 -367 0
-337 -368 0
-337 -369 0
-337 -370 0
-337 -371 0
-338 -339 0
-338 -340 0
-338 -341 0
-338 -342 0
-338 -343 0
-338 -344 0
-338 -345 0
-338 -346 0
-338 -347 0
-338 -348 0
-338 -349 0
-338 -350 0
-338 -351 0
-338 -352 0
-338 -353 0
-338 -354 0
-338 -355 0
-338 -356 0
-338 -357 0
-338 -358 0
-338 -359 0
-338 -360 0
-338 -361 0
-338 -362 0
-338 -363 0
-338 -364 0
-338 -365 0
-338 -366 0
-338 -367 0
-338 -368 0
-338 -369 0
-338 -370 0
-338 -371 0
-339 -340 0
-339 -341 0
-339 -342 0
-339 -343 0
-339 -344 0
-339 -345 0
-339 -346 0
-339 -347 0
-339 -348 0
-339 -349 0
-339 -350 0
-339 -351 0
-339 -352 0
-339 -353 0
-339 -354 0
-339 -355 0
-339 -356 0
-339 -357 0
-339 -358 0
-339 -359 0
-339 -360 0
-339 -361 0
-339 -362 0
-339 -363 0
-339 -364 0
-339 -365 0
-339 -366 0
-339 -367 0
-339 -368 0
-339 -369 0
-339 -370 0
-339 -371 0
-340 -341 0
-340 -342 0
-340 -343 0
-340 -344 0
-340 -345 0
-340 -346 0
-340 -347 0
-340 -348 0
-340 -349 0
-340 -350 0
-340 -351 0
-340 -352 0
-340 -353 0
-340 -354 0
-340 -355 0
-340 -356 0
-340 -357 0
-340 -358 0
-340 -359 0
-340 -360 0
-340 -361 0
-340 -362 0
-340 -363 0
-340 -364 0
-340 -365 0
-340 -366 0
-340 -367 0
-340 -368 0
-340 -369 0
-340 -370 0
-340 -371 0
-341 -342 0
-341 -343 0
-341 -344 0
-341 -345 0
-341 -346 0
-341 -347 0
-341 -348 0
-341 -349 0
-341 -350 0
-341 -351 0
-341 -352 0
-341 -353 0
-341 -354 0
-341 -355 0
-341 -356 0
-341 -357 0
-341 -358 0
-341 -359 0
-341 -360 0
-341 -361 0
-341 -362 0
-341 -363 0
-341 -364 0
-341 -365 0
-341 -366 0
-341 -367 0
-341 -368 0
-341 -369 0
-341 -370 0
-341 -371 0
-342 -343 0
-342 -344 0
-342 -345 0
-342 -346 0
-342 -347 0
-342 -348 0
-342 -349 0
-342 -350 0
-342 -351 0
-342 -352 0
-342 -353 0
-342 -354 0
-342 -355 0
-342 -356 0
-342 -357 0
-342 -358 0
-342 -359 0
-342 -360 0
-342 -361 0
-342 -362 0
-342 -363 0
-342 -364 0
-342 -365 0
-342 -366 0
-342 -367 0
-342 -368 0
-342 -369 0
-342 -370 0
-342 -371 0
-343 -344 0
-343 -345 0
-343 -346 0
-343 -347 0
-343 -348 0
-343 -349 0
-343 -350 0
-343 -351 0
-343 -352 0
-343 -353 0
-343 -354 0
-343 -355 0
-343 -356 0
-343 -357 0
-343 -358 0
-343 -359 0
-343 -360 0
-343 -361 0
-343 -362 0
-343 -363 0
-343 -364 0
-343 -365 0
-343 -366 0
-343 -367 0
-343 -368 0
-343 -369 0
-343 -370 0
-343 -371 0
-344 -345 0
-344 -346 0
-344 -347 0
-344 -348 0
-344 -349 0
-344 -350 0
-344 -351 0
-344 -352 0
-344 -353 0
-344 -354 0
-344 -355 0
-344 -356 0
-344 -357 0
-344 -358 0
-344 -359 0
-344 -360 0
-344 -361 0
-344 -362 0
-344 -363 0
-344 -364 0
-344 -365 0
-344 -366 0
-344 -367 0
-344 -368 0
-344 -369 0
-344 -370 0
-344 -371 0
-345 -346 0
-345 -347 0
-345 -348 0
-345 -349 0
-345 -350 0
-345 -351 0
-345 -352 0
-345 -353 0
-345 -354 0
-345 -355 0
-345 -356 0
-345 -357 0
-345 -358 0
-345 -359 0
-345 -360 0
-345 -361 0
-345 -362 0
-345 -363 0
-345 -364 0
-345 -365 0
-345 -366 0
-345 -367 0
-345 -368 0
-345 -369 0
-345 -370 0
-345 -371 0
-346 -347 0
-346 -348 0
-346 -349 0
-346 -350 0
-346 -351 0
-346 -352 0
-346 -353 0
-346 -354 0
-346 -355 0
-346 -356 0
-346 -357 0
-346 -358 0
-346 -359 0
-346 -360 0
-346 -361 0
-346 -362 0
-346 -363 0
-346 -364 0
-346 -365 0
-346 -366 0
-346 -367 0
-346 -368 0
-346 -369 0
-346 -370 0
-346 -371 0
-347 -348 0
-347 -349 0
-347 -350 0
-347 -351 0
-347 -352 0
-347 -353 0
-347 -354 0
-347 -355 0
-347 -356 0
-347 -357 0
-347 -358 0
-347 -359 0
-347 -360 0
-347 -361 0
-347 -362 0
-347 -363 0
-347 -364 0
-347 -365 0
-347 -366 0
-347 -367 0
-347 -368 0
-347 -369 0
-347 -370 0
-347 -371 0
-348 -349 0
-348 -350 0
-348 -351 0
-348 -352 0
-348 -353 0
-348 -354 0
-348 -355 0
-348 -356 0
-348 -357 0
-348 -358 0
-348 -359 0
-348 -360 0
-348 -361 0
-348 -362 0
-348 -363 0
-348 -364 0
-348 -365 0
-348 -366 0
-348 -367 0
-348 -368 0
-348 -369 0
-348 -370 0
-348 -371 0
-349 -350 0
-349 -351 0
-349 -352 0
-349 -353 0
-349 -354 0
-349 -355 0
-349 -356 0
-349 -357 0
-349 -358 0
-349 -359 0
-349 -360 0
-349 -361 0
-349 -362 0
-349 -363 0
-349 -364 0
-349 -365 0
-349 -366 0
-349 -367 0
-349 -368 0
-349 -369 0
-349 -370 0
-349 -371 0
-350 -351 0
-350 -352 0
-350 -353 0
-350 -354 0
-350 -355 0
-350 -356 0
-350 -357 0
-350 -358 0
-350 -359 0
-350 -360 0
-350 -361 0
-350 -362 0
-350 -363 0
-350 -364 0
-350 -365 0
-350 -366 0
-350 -367 0
-350 -368 0
-350 -369 0
-350 -370 0
-350 -371 0
-351 -352 0
-351 -353 0
-351 -354 0
-351 -355 0
-351 -356 0
-351 -357 0
-351 -358 0
-351 -359 0
-351 -360 0
-351 -361 0
-351 -362 0
-351 -363 0
-351 -364 0
-351 -365 0
-351 -366 0
-351 -367 0
-351 -368 0
-351 -369 0
-351 -370 0
-351 -371 0
-352 -353 0
-352 -354 0
-352 -355 0
-352 -356 0
-352 -357 0
-352 -358 0
-352 -359 0
-352 -360 0
-352 -361 0
-352 -362 0
-352 -363 0
-352 -364 0
-352 -365 0
-352 -366 0
-352 -367 0
-352 -368 0
-352 -369 0
-352 -370 0
-352 -371 0
-353 -354 0
-353 -355 0
-353 -356 0
-353 -357 0
-353 -358 0
-353 -359 0
-353 -360 0
-353 -361 0
-353 -362 0
-353 -363 0
-353 -364 0
-353 -365 0
-353 -366 0
-353 -367 0
-353 -368 0
-353 -369 0
-353 -370 0
-353 -371 0
-354 -355 0
-354 -356 0
-354 -357 0
-354 -358 0
-354 -359 0
-354 -360 0
-354 -361 0
-354 -362 0
-354 -363 0
-354 -364 0
-354 -365 0
-354 -366 0
-354 -367 0
-354 -368 0
-354 -369 0
-354 -370 0
-354 -371 0
-355 -356 0
-355 -357 0
-355 -358 0
-355 -359 0
-355 -360 0
-355 -361 0
-355 -362 0
-355 -363 0
-355 -364 0
-355 -365 0
-355 -366 0
-355 -367 0
-355 -368 0
-355 -369 0
-355 -370 0
-355 -371 0
-356 -357 0
-356 -358 0
-356 -359 0
-356 -360 0
-356 -361 0
-356 -362 0
-356 -363 0
-356 -364 0
-356 -365 0
-356 -366 0
-356 -367 0
-356 -368 0
-356 -369 0
-356 -370 0
-356 -371 0
-357 -358 0
-357 -359 0
-357 -360 0
-357 -361 0
-357 -362 0
-357 -363 0
-357 -364 0
-357 -365 0
-357 -366 0
-357 -367 0
-357 -368 0
-357 -369 0
-357 -370 0
-357 -371 0
-358 -359 0
-358 -360 0
-358 -361 0
-358 -362 0
-358 -363 0
-358 -364 0
-358 -365 0
-358 -366 0
-358 -367 0
-358 -368 0
-358 -369 0
-358 -370 0
-358 -371 0
-359 -360 0
-359 -361 0
-359 -362 0
-359 -363 0
-359 -364 0
-359 -365 0
-359 -366 0
-359 -367 0
-359 -368 0
-359 -369 0
-359 -370 0
-359 -371 0
-360 -361 0
-360 -362 0
-360 -363 0
-360 -364 0
-360 -365 0
-360 -366 0
-360 -367 0
-360 -368 0
-360 -369 0
-360 -370 0
-360 -371 0
-361 -362 0
-361 -363 0
-361 -364 0
-361 -365 0
-361 -366 0
-361 -367 0
-361 -368 0
-361 -369 0
-361 -370 0
-361 -371 0
-362 -363 0
-362 -364 0
-362 -365 0
-362 -366 0
-362 -367 0
-362 -368 0
-362 -369 0
-362 -370 0
-362 -371 0
-363 -364 0
-363 -365 0
-363 -366 0
-363 -367 0
-363 -368 0
-363 -369 0
-363 -370 0
-363 -371 0
-364 -365 0
-364 -366 0
-364 -367 0
-364 -368 0
-364 -369 0
-364 -370 0
-364 -371 0
-365 -366 0
-365 -367 0
-365 -368 0
-365 -369 0
-365 -370 0
-365 -371 0
-366 -367 0
-366 -368 0
-366 -369 0
-366 -370 0
-366 -371 0
-367 -368 0
-367 -369 0
-367 -370 0
-367 -371 0
-368 -369 0
-368 -370 0
-368 -371 0
-369 -370 0
-369 -371 0
-370 -371 0
372 373 374 375 376 377 378 379 380 381 382 383 384 385 386 387 388 389 390 391 392 393 394 395 396 397 398 399 400 401 402 403 404 405 406 407 408 409 410 411 412 413 414 415 416 417 418 419 420 421 422 423 424 425 426 427 428 429 430 431 432 433 434 435 436 437 438 439 440 441 442 443 444 445 446 447 448 449 450 451 452 453 454 455 0
-372 -373 0
-372 -374 0
-372 -375 0
-372 -376 0
-372 -377 0
-372 -378 0
-372 -379 0
-372 -380 0
-372 -381 0
-372 -382 0
-372 -383 0
-372 -384 0
-372 -385 0
-372 -386 0
-372 -387 0
-372 -388 0
-372 -389 0
-372 -390 0
-372 -391 0
-372 -392 0
-372 -393 0
-372 -394 0
-372 -395 0
-372 -396 0
-372 -397 0
-372 -398 0
-372 -399 0
-372 -400 0
-372 -401 0
-372 -402 0
-372 -403 0
-372 -404 0
-372 -405 0
-372 -406 0
-372 -407 0
-372 -408 0
-372 -409 0
-372 -410 0
-372 -411 0
-372 -412 0
-372 -413 0
-372 -414 0
-372 -415 0
-372 -416 0
-372 -417 0
-372 -418 0
-372 -419 0
-372 -420 0
-372 -421 0
-372 -422 0
-372 -423 0
-372 -424 0
-372 -425 0
-372 -426 0
-372 -427 0
-372 -428 0
-372 -429 0
-372 -430 0
-372 -431 0
-372 -432 0
-372 -433 0
-372 -434 0
-372 -435 0
-372 -436 0
-372 -437 0
-372 -438 0
-372 -439 0
-372 -440 0
-372 -441 0
-372 -442 0
-372 -443 0
-372 -444 0
-372 -445 0
-372 -446 0
-372 -447 0
-372 -448 0
-372 -449 0
-372 -450 0
-372 -451 0
-372 -452 0
-372 -453 0
-372 -454 0
-372 -455 0
-373 -374 0
-373 -375 0
-373 -376 0
-373 -377 0
-373 -378 0
-373 -379 0
-373 -380 0
-373 -381 0
-373 -382 0
-373 -383 0
-373 -384 0
-373 -385 0
-373 -386 0
-373 -387 0
-373 -388 0
-373 -389 0
-373 -390 0
-373 -391 0
-373 -392 0
-373 -393 0
-373 -394 0
-373 -395 0
-373 -396 0
-373 -397 0
-373 -398 0
-373 -399 0
-373 -400 0
-373 -401 0
-373 -402 0
-373 -403 0
-373 -404 0
-373 -405 0
-373 -406 0
-373 -407 0
-373 -408 0
-373 -409 0
-373 -410 0
-373 -411 0
-373 -412 0
-373 -413 0
-373 -414 0
-373 -415 0
-373 -416 0
-373 -417 0
-373 -418 0
-373 -419 0
-373 -420 0
-373 -421 0
-373 -422 0
-373 -423 0
-373 -424 0
-373 -425 0
-373 -426 0
-373 -427 0
-373 -428 0
-373 -429 0
-373 -430 0
-373 -431 0
-373 -432 0
-373 -433 0
-373 -434 0
-373 -435 0
-373 -436 0
-373 -437 0
-373 -438 0
-373 -439 0
-373 -440 0
-373 -441 0
-373 -442 0
-373 -443 0
-373 -444 0
-373 -445 0
-373 -446 0
-373 -447 0
-373 -448 0
-373 -449 0
-373 -450 0
-373 -451 0
-373 -452 0
-373 -453 0
-373 -454 0
-373 -455 0
-374 -375 0
-374 -376 0
-374 -377 0
-374 -378 0
-374 -379 0
-374 -380 0
-374 -381 0
-374 -382 0
-374 -383 0
-374 -384 0
-374 -385 0
-374 -386 0
-374 -387 0
-374 -388 0
-374 -389 0
-374 -390 0
-374 -391 0
-374 -392 0
-374 -393 0
-374 -394 0
-374 -395 0
-374 -396 0
-374 -397 0
-374 -398 0
-374 -399 0
-374 -400 0
-374 -401 0
-374 -402 0
-374 -403 0
-374 -404 0
-374 -405 0
-374 -406 0
-374 -407 0
-374 -408 0
-374 -409 0
-374 -410 0
-374 -411 0
-374 -412 0
-374 -413 0
-374 -414 0
-374 -415 0
-374 -416 0
-374 -417 0
-374 -418 0
-374 -419 0
-374 -420 0
-374 -421 0
-374 -422 0
-374 -423 0
-374 -424 0
-374 -425 0
-374 -426 0
-374 -427 0
-374 -428 0
-374 -429 0
-374 -430 0
-374 -431 0
-374 -432 0
-374 -433 0
-374 -434 0
-374 -435 0
-374 -436 0
-374 -437 0
-374 -438 0
-374 -439 0
-374 -440 0
-374 -441 0
-374 -442 0
-374 -443 0
-374 -444 0
-374 -445 0
-374 -446 0
-374 -447 0
-374 -448 0
-374 -449 0
-374 -450 0
-374 -451 0
-374 -452 0
-374 -453 0
-374 -454 0
-374 -455 0
-375 -376 0
-375 -377 0
-375 -378 0
-375 -379 0
-375 -380 0
-375 -381 0
-375 -382 0
-375 -383 0
-375 -384 0
-375 -385 0
-375 -386 0
-375 -387 0
-375 -388 0
-375 -389 0
-375 -390 0
-375 -391 0
-375 -392 0
-375 -393 0
-375 -394 0
-375 -395 0
-375 -396 0
-375 -397 0
-375 -398 0
-375 -399 0
-375 -400 0
-375 -401 0
-375 -402 0
-375 -403 0
-375 -404 0
-375 -405 0
-375 -406 0
-375 -407 0
-375 -408 0
-375 -409 0
-375 -410 0
-375 -411 0
-375 -412 0
-375 -413 0
-375 -414 0
-375 -415 0
-375 -416 0
-375 -417 0
-375 -418 0
-375 -419 0
-375 -420 0
-375 -421 0
-375 -422 0
-375 -423 0
-375 -424 0
-375 -425 0
-375 -426 0
-375 -427 0
-375 -428 0
-375 -429 0
-375 -430 0
-375 -431 0
-375 -432 0
-375 -433 0
-375 -434 0
-375 -435 0
-375 -436 0
-375 -437 0
-375 -438 0
-375 -439 0
-375 -440 0
-375 -441 0
-375 -442 0
-375 -443 0
-375 -444 0
-375 -445 0
-375 -446 0
-375 -447 0
-375 -448 0
-375 -449 0
-375 -450 0
-375 -451 0
-375 -452 0
-375 -453 0
-375 -454 0
-375 -455 0
-376 -377 0
-376 -378 0
-376 -379 0
-376 -380 0
-376 -381 0
-376 -382 0
-376 -383 0
-376 -384 0
-376 -385 0
-376 -386 0
-376 -387 0
-376 -388 0
-376 -389 0
-376 -390 0
-376 -391 0
-376 -392 0
-376 -393 0
-376 -394 0
-376 -395 0
-376 -396 0
-376 -397 0
-376 -398 0
-376 -399 0
-376 -400 0
-376 -401 0
-376 -402 0
-376 -403 0
-376 -404 0
-376 -405 0
-376 -406 0
-376 -407 0
-376 -408 0
-376 -409 0
-376 -410 0
-376 -411 0
-376 -412 0
-376 -413 0
-376 -414 0
-376 -415 0
-376 -416 0
-376 -417 0
-376 -418 0
-376 -419 0
-376 -420 0
-376 -421 0
-376 -422 0
-376 -423 0
-376 -424 0
-376 -425 0
-376 -426 0
-376 -427 0
-376 -428 0
-376 -429 0
-376 -430 0
-376 -431 0
-376 -432 0
-376 -433 0
-376 -434 0
-376 -435 0
-376 -436 0
-376 -437 0
-376 -438 0
-376 -439 0
-376 -440 0
-376 -441 0
-376 -442 0
-376 -443 0
-376 -444 0
-376 -445 0
-376 -446 0
-376 -447 0
-376 -448 0
-376 -449 0
-376 -450 0
-376 -451 0
-376 -452 0
-376 -453 0
-376 -454 0
-376 -455 0
-377 -378 0
-377 -379 0
-377 -380 0
-377 -381 0
-377 -382 0
-377 -383 0
-377 -384 0
-377 -385 0
-377 -386 0
-377 -387 0
-377 -388 0
-377 -389 0
-377 -390 0
-377 -391 0
-377 -392 0
-377 -393 0
-377 -394 0
-377 -395 0
-377 -396 0
-377 -397 0
-377 -398 0
-377 -399 0
-377 -400 0
-377 -401 0
-377 -402 0
-377 -403 0
-377 -404 0
-377 -405 0
-377 -406 0
-377 -407 0
-377 -408 0
-377 -409 0
-377 -410 0
-377 -411 0
-377 -412 0
-377 -413 0
-377 -414 0
-377 -415 0
-377 -416 0
-377 -417 0
-377 -418 0
-377 -419 0
-377 -420 0
-377 -421 0
-377 -422 0
-377 -423 0
-377 -424 0
-377 -425 0
-377 -426 0
-377 -427 0
-377 -428 0
-377 -429 0
-377 -430 0
-377 -431 0
-377 -432 0
-377 -433 0
-377 -434 0
-377 -435 0
-377 -436 0
-377 -437 0
-377 -438 0
-377 -439 0
-377 -440 0
-377 -441 0
-377 -442 0
-377 -443 0
-377 -444 0
-377 -445 0
-377 -446 0
-377 -447 0
-377 -448 0
-377 -449 0
-377 -450 0
-377 -451 0
-377 -452 0
-377 -453 0
-377 -454 0
-377 -455 0
-378 -379 0
-378 -380 0
-378 -381 0
-378 -382 0
-378 -383 0
-378 -384 0
-378 -385 0
-378 -386 0
-378 -387 0
-378 -388 0
-378 -389 0
-378 -390 0
-378 -391 0
-378 -392 0
-378 -393 0
-378 -394 0
-378 -395 0
-378 -396 0
-378 -397 0
-378 -398 0
-378 -399 0
-378 -400 0
-378 -401 0
-378 -402 0
-378 -403 0
-378 -404 0
-378 -405 0
-378 -406 0
-378 -407 0
-378 -408 0
-378 -409 0
-378 -410 0
-378 -411 0
-378 -412 0
-378 -413 0
-378 -414 0
-378 -415 0
-378 -416 0
-378 -417 0
-378 -418 0
-378 -419 0
-378 -420 0
-378 -421 0
-378 -422 0
-378 -423 0
-378 -424 0
-378 -425 0
-378 -426 0
-378 -427 0
-378 -428 0
-378 -429 0
-378 -430 0
-378 -431 0
-378 -432 0
-378 -433 0
-378 -434 0
-378 -435 0
-378 -436 0
-378 -437 0
-378 -438 0
-378 -439 0
-378 -440 0
-378 -441 0
-378 -442 0
-378 -443 0
-378 -444 0
-378 -445 0
-378 -446 0
-378 -447 0
-378 -448 0
-378 -449 0
-378 -450 0
-378 -451 0
-378 -452 0
-378 -453 0
-378 -454 0
-378 -455 0
-379 -380 0
-379 -381 0
-379 -382 0
-379 -383 0
-379 -384 0
-379 -385 0
-379 -386 0
-379 -387 0
-379 -388 0
-379 -389 0
-379 -390 0
-379 -391 0
-379 -392 0
-379 -393 0
-379 -394 0
-379 -395 0
-379 -396 0
-379 -397 0
-379 -398 0
-379 -399 0
-379 -400 0
-379 -401 0
-379 -402 0
-379 -403 0
-379 -404 0
-379 -405 0
-379 -406 0
-379 -407 0
-379 -408 0
-379 -409 0
-379 -410 0
-379 -411 0
-379 -412 0
-379 -413 0
-379 -414 0
-379 -415 0
-379 -416 0
-379 -417 0
-379 -418 0
-379 -419 0
-379 -420 0
-379 -421 0
-379 -422 0
-379 -423 0
-379 -424 0
-379 -425 0
-379 -426 0
-379 -427 0
-379 -428 0
-379 -429 0
-379 -430 0
-379 -431 0
-379 -432 0
-379 -433 0
-379 -434 0
-379 -435 0
-379 -436 0
-379 -437 0
-379 -438 0
-379 -439 0
-379 -440 0
-379 -441 0
-379 -442 0
-379 -443 0
-379 -444 0
-379 -445 0
-379 -446 0
-379 -447 0
-379 -448 0
-379 -449 0
-379 -450 0
-379 -451 0
-379 -452 0
-379 -453 0
-379 -454 0
-379 -455 0
-380 -381 0
-380 -382 0
-380 -383 0
-380 -384 0
-380 -385 0
-380 -386 0
-380 -387 0
-380 -388 0
-380 -389 0
-380 -390 0
-380 -391 0
-380 -392 0
-380 -393 0
-380 -394 0
-380 -395 0
-380 -396 0
-380 -397 0
-380 -398 0
-380 -399 0
-380 -400 0
-380 -401 0
-380 -402 0
-380 -403 0
-380 -404 0
-380 -405 0
-380 -406 0
-380 -407 0
-380 -408 0
-380 -409 0
-380 -410 0
-380 -411 0
-380 -412 0
-380 -413 0
-380 -414 0
-380 -415 0
-380 -416 0
-380 -417 0
-380 -418 0
-380 -419 0
-380 -420 0
-380 -421 0
-380 -422 0
-380 -423 0
-380 -424 0
-380 -425 0
-380 -426 0
-380 -427 0
-380 -428 0
-380 -429 0
-380 -430 0
-380 -431 0
-380 -432 0
-380 -433 0
-380 -434 0
-380 -435 0
-380 -436 0
-380 -437 0
-380 -438 0
-380 -439 0
-380 -440 0
-380 -441 0
-380 -442 0
-380 -443 0
-380 -444 0
-380 -445 0
-380 -446 0
-380 -447 0
-380 -448 0
-380 -449 0
-380 -450 0
-380 -451 0
-380 -452 0
-380 -453 0
-380 -454 0
-380 -455 0
-381 -382 0
-381 -383 0
-381 -384 0
-381 -385 0
-381 -386 0
-381 -387 0
-381 -388 0
-381 -389 0
-381 -390 0
-381 -391 0
-381 -392 0
-381 -393 0
-381 -394 0
-381 -395 0
-381 -396 0
-381 -397 0
-381 -398 0
-381 -399 0
-381 -400 0
-381 -401 0
-381 -402 0
-381 -403 0
-381 -404 0
-381 -405 0
-381 -406 0
-381 -407 0
-381 -408 0
-381 -409 0
-381 -410 0
-381 -411 0
-381 -412 0
-381 -413 0
-381 -414 0
-381 -415 0
-381 -416 0
-381 -417 0
-381 -418 0
-381 -419 0
-381 -420 0
-381 -421 0
-381 -422 0
-381 -423 0
-381 -424 0
-381 -425 0
-381 -426 0
-381 -427 0
-381 -428 0
-381 -429 0
-381 -430 0
-381 -431 0
-381 -432 0
-381 -433 0
-381 -434 0
-381 -435 0
-381 -436 0
-381 -437 0
-381 -438 0
-381 -439 0
-381 -440 0
-381 -441 0
-381 -442 0
-381 -443 0
-381 -444 0
-381 -445 0
-381 -446 0
-381 -447 0
-381 -448 0
-381 -449 0
-381 -450 0
-381 -451 0
-381 -452 0
-381 -453 0
-381 -454 0
-381 -455 0
-382 -383 0
-382 -384 0
-382 -385 0
-382 -386 0
-382 -387 0
-382 -388 0
-382 -389 0
-382 -390 0
-382 -391 0
-382 -392 0
-382 -393 0
-382 -394 0
-382 -395 0
-382 -396 0
-382 -397 0
-382 -398 0
-382 -399 0
-382 -400 0
-382 -401 0
-382 -402 0
-382 -403 0
-382 -404 0
-382 -405 0
-382 -406 0
-382 -407 0
-382 -408 0
-382 -409 0
-382 -410 0
-382 -411 0
-382 -412 0
-382 -413 0
-382 -414 0
-382 -415 0
-382 -416 0
-382 -417 0
-382 -418 0
-382 -419 0
-382 -420 0
-382 -421 0
-382 -422 0
-382 -423 0
-382 -424 0
-382 -425 0
-382 -426 0
-382 -427 0
-382 -428 0
-382 -429 0
-382 -430 0
-382 -431 0
-382 -432 0
-382 -433 0
-382 -434 0
-382 -435 0
-382 -436 0
-382 -437 0
-382 -438 0
-382 -439 0
-382 -440 0
-382 -441 0
-382 -442 0
-382 -443 0
-382 -444 0
-382 -445 0
-382 -446 0
-382 -447 0
-382 -448 0
-382 -449 0
-382 -450 0
-382 -451 0
-382 -452 0
-382 -453 0
-382 -454 0
-382 -455 0
-383 -384 0
-383 -385 0
-383 -386 0
-383 -387 0
-383 -388 0
-383 -389 0
-383 -390 0
-383 -391 0
-383 -392 0
-383 -393 0
-383 -394 0
-383 -395 0
-383 -396 0
-383 -397 0
-383 -398 0
-383 -399 0
-383 -400 0
-383 -401 0
-383 -402 0
-383 -403 0
-383 -404 0
-383 -405 0
-383 -406 0
-383 -407 0
-383 -408 0
-383 -409 0
-383 -410 0
-383 -411 0
-383 -412 0
-383 -413 0
-383 -414 0
-383 -415 0
-383 -416 0
-383 -417 0
-383 -418 0
-383 -419 0
-383 -420 0
-383 -421 0
-383 -422 0
-383 -423 0
-383 -424 0
-383 -425 0
-383 -426 0
-383 -427 0
-383 -428 0
-383 -429 0
-383 -430 0
-383 -431 0
-383 -432 0
-383 -433 0
-383 -434 0
-383 -435 0
-383 -436 0
-383 -437 0
-383 -438 0
-383 -439 0
-383 -440 0
-383 -441 0
-383 -442 0
-383 -443 0
-383 -444 0
-383 -445 0
-383 -446 0
-383 -447 0
-383 -448 0
-383 -449 0
-383 -450 0
-383 -451 0
-383 -452 0
-383 -453 0
-383 -454 0
-383 -455 0
-384 -385 0
-384 -386 0
-384 -387 0
-384 -388 0
-384 -389 0
-384 -390 0
-384 -391 0
-384 -392 0
-384 -393 0
-384 -394 0
-384 -395 0
-384 -396 0
-384 -397 0
-384 -398 0
-384 -399 0
-384 -400 0
-384 -401 0
-384 -402 0
-384 -403 0
-384 -404 0
-384 -405 0
-384 -406 0
-384 -407 0
-384 -408 0
-384 -409 0
-384 -410 0
-384 -411 0
-384 -412 0
-384 -413 0
-384 -414 0
-384 -415 0
-384 -416 0
-384 -417 0
-384 -418 0
-384 -419 0
-384 -420 0
-384 -421 0
-384 -422 0
-384 -423 0
-384 -424 0
-384 -425 0
-384 -426 0
-384 -427 0
-384 -428 0
-384 -429 0
-384 -430 0
-384 -431 0
-384 -432 0
-384 -433 0
-384 -434 0
-384 -435 0
-384 -436 0
-384 -437 0
-384 -438 0
-384 -439 0
-384 -440 0
-384 -441 0
-384 -442 0
-384 -443 0
-384 -444 0
-384 -445 0
-384 -446 0
-384 -447 0
-384 -448 0
-384 -449 0
-384 -450 0
-384 -451 0
-384 -452 0
-384 -453 0
-384 -454 0
-384 -455 0
-385 -386 0
-385 -387 0
-385 -388 0
-385 -389 0
-385 -390 0
-385 -391 0
-385 -392 0
-385 -393 0
-385 -394 0
-385 -395 0
-385 -396 0
-385 -397 0
-385 -398 0
-385 -399 0
-385 -400 0
-385 -401 0
-385 -402 0
-385 -403 0
-385 -404 0
-385 -405 0
-385 -406 0
-385 -407 0
-385 -408 0
-385 -409 0
-385 -410 0
-385 -411 0
-385 -412 0
-385 -413 0
-385 -414 0
-385 -415 0
-385 -416 0
-385 -417 0
-385 -418 0
-385 -419 0
-385 -420 0
-385 -421 0
-385 -422 0
-385 -423 0
-385 -424 0
-385 -425 0
-385 -426 0
-385 -427 0
-385 -428 0
-385 -429 0
-385 -430 0
-385 -431 0
-385 -432 0
-385 -433 0
-385 -434 0
-385 -435 0
-385 -436 0
-385 -437 0
-385 -438 0
-385 -439 0
-385 -440 0
-385 -441 0
-385 -442 0
-385 -443 0
-385 -444 0
-385 -445 0
-385 -446 0
-385 -447 0
-385 -448 0
-385 -449 0
-385 -450 0
-385 -451 0
-385 -452 0
-385 -453 0
-385 -454 0
-385 -455 0
-386 -387 0
-386 -388 0
-386 -389 0
-386 -390 0
-386 -391 0
-386 -392 0
-386 -393 0
-386 -394 0
-386 -395 0
-386 -396 0
-386 -397 0
-386 -398 0
-386 -399 0
-386 -400 0
-386 -401 0
-386 -402 0
-386 -403 0
-386 -404 0
-386 -405 0
-386 -406 0
-386 -407 0
-386 -408 0
-386 -409 0
-386 -410 0
-386 -411 0
-386 -412 0
-386 -413 0
-386 -414 0
-386 -415 0
-386 -416 0
-386 -417 0
-386 -418 0
-386 -419 0
-386 -420 0
-386 -421 0
-386 -422 0
-386 -423 0
-386 -424 0
-386 -425 0
-386 -426 0
-386 -427 0
-386 -428 0
-386 -429 0
-386 -430 0
-386 -431 0
-386 -432 0
-386 -433 0
-386 -434 0
-386 -435 0
-386 -436 0
-386 -437 0
-386 -438 0
-386 -439 0
-386 -440 0
-386 -441 0
-386 -442 0
-386 -443 0
-386 -444 0
-386 -445 0
-386 -446 0
-386 -447 0
-386 -448 0
-386 -449 0
-386 -450 0
-386 -451 0
-386 -452 0
-386 -453 0
-386 -454 0
-386 -455 0
-387 -388 0
-387 -389 0
-387 -390 0
-387 -391 0
-387 -392 0
-387 -393 0
-387 -394 0
-387 -395 0
-387 -396 0
-387 -397 0
-387 -398 0
-387 -399 0
-387 -400 0
-387 -401 0
-387 -402 0
-387 -403 0
-387 -404 0
-387 -405 0
-387 -406 0
-387 -407 0
-387 -408 0
-387 -409 0
-387 -410 0
-387 -411 0
-387 -412 0
-387 -413 0
-387 -414 0
-387 -415 0
-387 -416 0
-387 -417 0
-387 -418 0
-387 -419 0
-387 -420 0
-387 -421 0
-387 -422 0
-387 -423 0
-387 -424 0
-387 -425 0
-387 -426 0
-387 -427 0
-387 -428 0
-387 -429 0
-387 -430 0
-387 -431 0
-387 -432 0
-387 -433 0
-387 -434 0
-387 -435 0
-387 -436 0
-387 -437 0
-387 -438 0
-387 -439 0
-387 -440 0
-387 -441 0
-387 -442 0
-387 -443 0
-387 -444 0
-387 -445 0
-387 -446 0
-387 -447 0
-387 -448 0
-387 -449 0
-387 -450 0
-387 -451 0
-387 -452 0
-387 -453 0
-387 -454 0
-387 -455 0
-388 -389 0
-388 -390 0
-388 -391 0
-388 -392 0
-388 -393 0
-388 -394 0
-388 -395 0
-388 -396 0
-388 -397 0
-388 -398 0
-388 -399 0
-388 -400 0
-388 -401 0
-388 -402 0
-388 -403 0
-388 -404 0
-388 -405 0
-388 -406 0
-388 -407 0
-388 -408 0
-388 -409 0
-388 -410 0
-388 -411 0
-388 -412 0
-388 -413 0
-388 -414 0
-388 -415 0
-388 -416 0
-388 -417 0
-388 -418 0
-388 -419 0
-388 -420 0
-388 -421 0
-388 -422 0
-388 -423 0
-388 -424 0
-388 -425 0
-388 -426 0
-388 -427 0
-388 -428 0
-388 -429 0
-388 -430 0
-388 -431 0
-388 -432 0
-388 -433 0
-388 -434 0
-388 -435 0
-388 -436 0
-388 -437 0
-388 -438 0
-388 -439 0
-388 -440 0
-388 -441 0
-388 -442 0
-388 -443 0
-388 -444 0
-388 -445 0
-388 -446 0
-388 -447 0
-388 -448 0
-388 -449 0
-388 -450 0
-388 -451 0
-388 -452 0
-388 -453 0
-388 -454 0
-388 -455 0
-389 -390 0
-389 -391 0
-389 -392 0
-389 -393 0
-389 -394 0
-389 -395 0
-389 -396 0
-389 -397 0
-389 -398 0
-389 -399 0
-389 -400 0
-389 -401 0
-389 -402 0
-389 -403 0
-389 -404 0
-389 -405 0
-389 -406 0
-389 -407 0
-389 -408 0
-389 -409 0
-389 -410 0
-389 -411 0
-389 -412 0
-389 -413 0
-389 -414 0
-389 -415 0
-389 -416 0
-389 -417 0
-389 -418 0
-389 -419 0
-389 -420 0
-389 -421 0
-389 -422 0
-389 -423 0
-389 -424 0
-389 -425 0
-389 -426 0
-389 -427 0
-389 -428 0
-389 -429 0
-389 -430 0
-389 -431 0
-389 -432 0
-389 -433 0
-389 -434 0
-389 -435 0
-389 -436 0
-389 -437 0
-389 -438 0
-389 -439 0
-389 -440 0
-389 -441 0
-389 -442 0
-389 -443 0
-389 -444 0
-389 -445 0
-389 -446 0
-389 -447 0
-389 -448 0
-389 -449 0
-389 -450 0
-389 -451 0
-389 -452 0
-389 -453 0
-389 -454 0
-389 -455 0
-390 -391 0
-390 -392 0
-390 -393 0
-390 -394 0
-390 -395 0
-390 -396 0
-390 -397 0
-390 -398 0
-390 -399 0
-390 -400 0
-390 -401 0
-390 -402 0
-390 -403 0
-390 -404 0
-390 -405 0
-390 -406 0
-390 -407 0
-390 -408 0
-390 -409 0
-390 -410 0
-390 -411 0
-390 -412 0
-390 -413 0
-390 -414 0
-390 -415 0
-390 -416 0
-390 -417 0
-390 -418 0
-390 -419 0
-390 -420 0
-390 -421 0
-390 -422 0
-390 -423 0
-390 -424 0
-390 -425 0
-390 -426 0
-390 -427 0
-390 -428 0
-390 -429 0
-390 -430 0
-390 -431 0
-390 -432 0
-390 -433 0
-390 -434 0
-390 -435 0
-390 -436 0
-390 -437 0
-390 -438 0
-390 -439 0
-390 -440 0
-390 -441 0
-390 -442 0
-390 -443 0
-390 -444 0
-390 -445 0
-390 -446 0
-390 -447 0
-390 -448 0
-390 -449 0
-390 -450 0
-390 -451 0
-390 -452 0
-390 -453 0
-390 -454 0
-390 -455 0
-391 -392 0
-391 -393 0
-391 -394 0
-391 -395 0
-391 -396 0
-391 -397 0
-391 -398 0
-391 -399 0
-391 -400 0
-391 -401 0
-391 -402 0
-391 -403 0
-391 -404 0
-391 -405 0
-391 -406 0
-391 -407 0
-391 -408 0
-391 -409 0
-391 -410 0
-391 -411 0
-391 -412 0
-391 -413 0
-391 -414 0
-391 -415 0
-391 -416 0
-391 -417 0
-391 -418 0
-391 -419 0
-391 -420 0
-391 -421 0
-391 -422 0
-391 -423 0
-391 -424 0
-391 -425 0
-391 -426 0
-391 -427 0
-391 -428 0
-391 -429 0
-391 -430 0
-391 -431 0
-391 -432 0
-391 -433 0
-391 -434 0
-391 -435 0
-391 -436 0
-391 -437 0
-391 -438 0
-391 -439 0
-391 -440 0
-391 -441 0
-391 -442 0
-391 -443 0
-391 -444 0
-391 -445 0
-391 -446 0
-391 -447 0
-391 -448 0
-391 -449 0
-391 -450 0
-391 -451 0
-391 -452 0
-391 -453 0
-391 -454 0
-391 -455 0
-392 -393 0
-392 -394 0
-392 -395 0
-392 -396 0
-392 -397 0
-392 -398 0
-392 -399 0
-392 -400 0
-392 -401 0
-392 -402 0
-392 -403 0
-392 -404 0
-392 -405 0
-392 -406 0
-392 -407 0
-392 -408 0
-392 -409 0
-392 -410 0
-392 -411 0
-392 -412 0
-392 -413 0
-392 -414 0
-392 -415 0
-392 -416 0
-392 -417 0
-392 -418 0
-392 -419 0
-392 -420 0
-392 -421 0
-392 -422 0
-392 -423 0
-392 -424 0
-392 -425 0
-392 -426 0
-392 -427 0
-392 -428 0
-392 -429 0
-392 -430 0
-392 -431 0
-392 -432 0
-392 -433 0
-392 -434 0
-392 -435 0
-392 -436 0
-392 -437 0
-392 -438 0
-392 -439 0
-392 -440 0
-392 -441 0
-392 -442 0
-392 -443 0
-392 -444 0
-392 -445 0
-392 -446 0
-392 -447 0
-392 -448 0
-392 -449 0
-392 -450 0
-392 -451 0
-392 -452 0
-392 -453 0
-392 -454 0
-392 -455 0
-393 -394 0
-393 -395 0
-393 -396 0
-393 -397 0
-393 -398 0
-393 -399 0
-393 -400 0
-393 -401 0
-393 -402 0
-393 -403 0
-393 -404 0
-393 -405 0
-393 -406 0
-393 -407 0
-393 -408 0
-393 -409 0
-393 -410 0
-393 -411 0
-393 -412 0
-393 -413 0
-393 -414 0
-393 -415 0
-393 -416 0
-393 -417 0
-393 -418 0
-393 -419 0
-393 -420 0
-393 -421 0
-393 -422 0
-393 -423 0
-393 -424 0
-393 -425 0
-393 -426 0
-393 -427 0
-393 -428 0
-393 -429 0
-393 -430 0
-393 -431 0
-393 -432 0
-393 -433 0
-393 -434 0
-393 -435 0
-393 -436 0
-393 -437 0
-393 -438 0
-393 -439 0
-393 -440 0
-393 -441 0
-393 -442 0
-393 -443 0
-393 -444 0
-393 -445 0
-393 -446 0
-393 -447 0
-393 -448 0
-393 -449 0
-393 -450 0
-393 -451 0
-393 -452 0
-393 -453 0
-393 -454 0
-393 -455 0
-394 -395 0
-394 -396 0
-394 -397 0
-394 -398 0
-394 -399 0
-394 -400 0
-394 -401 0
-394 -402 0
-394 -403 0
-394 -404 0
-394 -405 0
-394 -406 0
-394 -407 0
-394 -408 0
-394 -409 0
-394 -410 0
-394 -411 0
-394 -412 0
-394 -413 0
-394 -414 0
-394 -415 0
-394 -416 0
-394 -417 0
-394 -418 0
-394 -419 0
-394 -420 0
-394 -421 0
-394 -422 0
-394 -423 0
-394 -424 0
-394 -425 0
-394 -426 0
-394 -427 0
-394 -428 0
-394 -429 0
-394 -430 0
-394 -431 0
-394 -432 0
-394 -433 0
-394 -434 0
-394 -435 0
-394 -436 0
-394 -437 0
-394 -438 0
-394 -439 0
-394 -440 0
-394 -441 0
-394 -442 0
-394 -443 0
-394 -444 0
-394 -445 0
-394 -446 0
-394 -447 0
-394 -448 0
-394 -449 0
-394 -450 0
-394 -451 0
-394 -452 0
-394 -453 0
-394 -454 0
-394 -455 0
-395 -396 0
-395 -397 0
-395 -398 0
-395 -399 0
-395 -400 0
-395 -401 0
-395 -402 0
-395 -403 0
-395 -404 0
-395 -405 0
-395 -406 0
-395 -407 0
-395 -408 0
-395 -409 0
-395 -410 0
-395 -411 0
-395 -412 0
-395 -413 0
-395 -414 0
-395 -415 0
-395 -416 0
-395 -417 0
-395 -418 0
-395 -419 0
-395 -420 0
-395 -421 0
-395 -422 0
-395 -423 0
-395 -424 0
-395 -425 0
-395 -426 0
-395 -427 0
-395 -428 0
-395 -429 0
-395 -430 0
-395 -431 0
-395 -432 0
-395 -433 0
-395 -434 0
-395 -435 0
-395 -436 0
-395 -437 0
-395 -438 0
-395 -439 0
-395 -440 0
-395 -441 0
-395 -442 0
-395 -443 0
-395 -444 0
-395 -445 0
-395 -446 0
-395 -447 0
-395 -448 0
-395 -449 0
-395 -450 0
-395 -451 0
-395 -452 0
-395 -453 0
-395 -454 0
-395 -455 0
-396 -397 0
-396 -398 0
-396 -399 0
-396 -400 0
-396 -401 0
-396 -402 0
-396 -403 0
-396 -404 0
-396 -405 0
-396 -406 0
-396 -407 0
-396 -408 0
-396 -409 0
-396 -410 0
-396 -411 0
-396 -412 0
-396 -413 0
-396 -414 0
-396 -415 0
-396 -416 0
-396 -417 0
-396 -418 0
-396 -419 0
-396 -420 0
-396 -421 0
-396 -422 0
-396 -423 0
-396 -424 0
-396 -425 0
-396 -426 0
-396 -427 0
-396 -428 0
-396 -429 0
-396 -430 0
-396 -431 0
-396 -432 0
-396 -433 0
-396 -434 0
-396 -435 0
-396 -436 0
-396 -437 0
-396 -438 0
-396 -439 0
-396 -440 0
-396 -441 0
-396 -442 0
-396 -443 0
-396 -444 0
-396 -445 0
-396 -446 0
-396 -447 0
-396 -448 0
-396 -449 0
-396 -450 0
-396 -451 0
-396 -452 0
-396 -453 0
-396 -454 0
-396 -455 0
-397 -398 0
-397 -399 0
-397 -400 0
-397 -401 0
-397 -402 0
-397 -403 0
-397 -404 0
-397 -405 0
-397 -406 0
-397 -407 0
-397 -408 0
-397 -409 0
-397 -410 0
-397 -411 0
-397 -412 0
-397 -413 0
-397 -414 0
-397 -415 0
-397 -416 0
-397 -417 0
-397 -418 0
-397 -419 0
-397 -420 0
-397 -421 0
-397 -422 0
-397 -423 0
-397 -424 0
-397 -425 0
-397 -426 0
-397 -427 0
-397 -428 0
-397 -429 0
-397 -430 0
-397 -431 0
-397 -432 0
-397 -433 0
-397 -434 0
-397 -435 0
-397 -436 0
-397 -437 0
-397 -438 0
-397 -439 0
-397 -440 0
-397 -441 0
-397 -442 0
-397 -443 0
-397 -444 0
-397 -445 0
-397 -446 0
-397 -447 0
-397 -448 0
-397 -449 0
-397 -450 0
-397 -451 0
-397 -452 0
-397 -453 0
-397 -454 0
-397 -455 0
-398 -399 0
-398 -400 0
-398 -401 0
-398 -402 0
-398 -403 0
-398 -404 0
-398 -405 0
-398 -406 0
-398 -407 0
-398 -408 0
-398 -409 0
-398 -410 0
-398 -411 0
-398 -412 0
-398 -413 0
-398 -414 0
-398 -415 0
-398 -416 0
-398 -417 0
-398 -418 0
-398 -419 0
-398 -420 0
-398 -421 0
-398 -422 0
-398 -423 0
-398 -424 0
-398 -425 0
-398 -426 0
-398 -427 0
-398 -428 0
-398 -429 0
-398 -430 0
-398 -431 0
-398 -432 0
-398 -433 0
-398 -434 0
-398 -435 0
-398 -436 0
-398 -437 0
-398 -438 0
-398 -439 0
-398 -440 0
-398 -441 0
-398 -442 0
-398 -443 0
-398 -444 0
-398 -445 0
-398 -446 0
-398 -447 0
-398 -448 0
-398 -449 0
-398 -450 0
-398 -451 0
-398 -452 0
-398 -453 0
-398 -454 0
-398 -455 0
-399 -400 0
-399 -401 0
-399 -402 0
-399 -403 0
-399 -404 0
-399 -405 0
-399 -406 0
-399 -407 0
-399 -408 0
-399 -409 0
-399 -410 0
-399 -411 0
-399 -412 0
-399 -413 0
-399 -414 0
-399 -415 0
-399 -416 0
-399 -417 0
-399 -418 0
-399 -419 0
-399 -420 0
-399 -421 0
-399 -422 0
-399 -423 0
-399 -424 0
-399 -425 0
-399 -426 0
-399 -427 0
-399 -428 0
-399 -429 0
-399 -430 0
-399 -431 0
-399 -432 0
-399 -433 0
-399 -434 0
-399 -435 0
-399 -436 0
-399 -437 0
-399 -438 0
-399 -439 0
-399 -440 0
-399 -441 0
-399 -442 0
-399 -443 0
-399 -444 0
-399 -445 0
-399 -446 0
-399 -447 0
-399 -448 0
-399 -449 0
-399 -450 0
-399 -451 0
-399 -452 0
-399 -453 0
-399 -454 0
-399 -455 0
-400 -401 0
-400 -402 0
-400 -403 0
-400 -404 0
-400 -405 0
-400 -406 0
-400 -407 0
-400 -408 0
-400 -409 0
-400 -410 0
-400 -411 0
-400 -412 0
-400 -413 0
-400 -414 0
-400 -415 0
-400 -416 0
-400 -417 0
-400 -418 0
-400 -419 0
-400 -420 0
-400 -421 0
-400 -422 0
-400 -423 0
-400 -424 0
-400 -425 0
-400 -426 0
-400 -427 0
-400 -428 0
-400 -429 0
-400 -430 0
-400 -431 0
-400 -432 0
-400 -433 0
-400 -434 0
-400 -435 0
-400 -436 0
-400 -437 0
-400 -438 0
-400 -439 0
-400 -440 0
-400 -441 0
-400 -442 0
-400 -443 0
-400 -444 0
-400 -445 0
-400 -446 0
-400 -447 0
-400 -448 0
-400 -449 0
-400 -450 0
-400 -451 0
-400 -452 0
-400 -453 0
-400 -454 0
-400 -455 0
-401 -402 0
-401 -403 0
-401 -404 0
-401 -405 0
-401 -406 0
-401 -407 0
-401 -408 0
-401 -409 0
-401 -410 0
-401 -411 0
-401 -412 0
-401 -413 0
-401 -414 0
-401 -415 0
-401 -416 0
-401 -417 0
-401 -418 0
-401 -419 0
-401 -420 0
-401 -421 0
-401 -422 0
-401 -423 0
-401 -424 0
-401 -425 0
-401 -426 0
-401 -427 0
-401 -428 0
-401 -429 0
-401 -430 0
-401 -431 0
-401 -432 0
-401 -433 0
-401 -434 0
-401 -435 0
-401 -436 0
-401 -437 0
-401 -438 0
-401 -439 0
-401 -440 0
-401 -441 0
-401 -442 0
-401 -443 0
-401 -444 0
-401 -445 0
-401 -446 0
-401 -447 0
-401 -448 0
-401 -449 0
-401 -450 0
-401 -451 0
-401 -452 0
-401 -453 0
-401 -454 0
-401 -455 0
-402 -403 0
-402 -404 0
-402 -405 0
-402 -406 0
-402 -407 0
-402 -408 0
-402 -409 0
-402 -410 0
-402 -411 0
-402 -412 0
-402 -413 0
-402 -414 0
-402 -415 0
-402 -416 0
-402 -417 0
-402 -418 0
-402 -419 0
-402 -420 0
-402 -421 0
-402 -422 0
-402 -423 0
-402 -424 0
-402 -425 0
-402 -426 0
-402 -427 0
-402 -428 0
-402 -429 0
-402 -430 0
-402 -431 0
-402 -432 0
-402 -433 0
-402 -434 0
-402 -435 0
-402 -436 0
-402 -437 0
-402 -438 0
-402 -439 0
-402 -440 0
-402 -441 0
-402 -442 0
-402 -443 0
-402 -444 0
-402 -445 0
-402 -446 0
-402 -447 0
-402 -448 0
-402 -449 0
-402 -450 0
-402 -451 0
-402 -452 0
-402 -453 0
-402 -454 0
-402 -455 0
-403 -404 0
-403 -405 0
-403 -406 0
-403 -407 0
-403 -408 0
-403 -409 0
-403 -410 0
-403 -411 0
-403 -412 0
-403 -413 0
-403 -414 0
-403 -415 0
-403 -416 0
-403 -417 0
-403 -418 0
-403 -419 0
-403 -420 0
-403 -421 0
-403 -422 0
-403 -423 0
-403 -424 0
-403 -425 0
-403 -426 0
-403 -427 0
-403 -428 0
-403 -429 0
-403 -430 0
-403 -431 0
-403 -432 0
-403 -433 0
-403 -434 0
-403 -435 0
-403 -436 0
-403 -437 0
-403 -438 0
-403 -439 0
-403 -440 0
-403 -441 0
-403 -442 0
-403 -443 0
-403 -444 0
-403 -445 0
-403 -446 0
-403 -447 0
-403 -448 0
-403 -449 0
-403 -450 0
-403 -451 0
-403 -452 0
-403 -453 0
-403 -454 0
-403 -455 0
-404 -405 0
-404 -406 0
-404 -407 0
-404 -408 0
-404 -409 0
-404 -410 0
-404 -411 0
-404 -412 0
-404 -413 0
-404 -414 0
-404 -415 0
-404 -416 0
-404 -417 0
-404 -418 0
-404 -419 0
-404 -420 0
-404 -421 0
-404 -422 0
-404 -423 0
-404 -424 0
-404 -425 0
-404 -426 0
-404 -427 0
-404 -428 0
-404 -429 0
-404 -430 0
-404 -431 0
-404 -432 0
-404 -433 0
-404 -434 0
-404 -435 0
-404 -436 0
-404 -437 0
-404 -438 0
-404 -439 0
-404 -440 0
-404 -441 0
-404 -442 0
-404 -443 0
-404 -444 0
-404 -445 0
-404 -446 0
-404 -447 0
-404 -448 0
-404 -449 0
-404 -450 0
-404 -451 0
-404 -452 0
-404 -453 0
-404 -454 0
-404 -455 0
-405 -406 0
-405 -407 0
-405 -408 0
-405 -409 0
-405 -410 0
-405 -411 0
-405 -412 0
-405 -413 0
-405 -414 0
-405 -415 0
-405 -416 0
-405 -417 0
-405 -418 0
-405 -419 0
-405 -420 0
-405 -421 0
-405 -422 0
-405 -423 0
-405 -424 0
-405 -425 0
-405 -426 0
-405 -427 0
-405 -428 0
-405 -429 0
-405 -430 0
-405 -431 0
-405 -432 0
-405 -433 0
-405 -434 0
-405 -435 0
-405 -436 0
-405 -437 0
-405 -438 0
-405 -439 0
-405 -440 0
-405 -441 0
-405 -442 0
-405 -443 0
-405 -444 0
-405 -445 0
-405 -446 0
-405 -447 0
-405 -448 0
-405 -449 0
-405 -450 0
-405 -451 0
-405 -452 0
-405 -453 0
-405 -454 0
-405 -455 0
-406 -407 0
-406 -408 0
-406 -409 0
-406 -410 0
-406 -411 0
-406 -412 0
-406 -413 0
-406 -414 0
-406 -415 0
-406 -416 0
-406 -417 0
-406 -418 0
-406 -419 0
-406 -420 0
-406 -421 0
-406 -422 0
-406 -423 0
-406 -424 0
-406 -425 0
-406 -426 0
-406 -427 0
-406 -428 0
-406 -429 0
-406 -430 0
-406 -431 0
-406 -432 0
-406 -433 0
-406 -434 0
-406 -435 0
-406 -436 0
-406 -437 0
-406 -438 0
-406 -439 0
-406 -440 0
-406 -441 0
-406 -442 0
-406 -443 0
-406 -444 0
-406 -445 0
-406 -446 0
-406 -447 0
-406 -448 0
-406 -449 0
-406 -450 0
-406 -451 0
-406 -452 0
-406 -453 0
-406 -454 0
-406 -455 0
-407 -408 0
-407 -409 0
-407 -410 0
-407 -411 0
-407 -412 0
-407 -413 0
-407 -414 0
-407 -415 0
-407 -416 0
-407 -417 0
-407 -418 0
-407 -419 0
-407 -420 0
-407 -421 0
-407 -422 0
-407 -423 0
-407 -424 0
-407 -425 0
-407 -426 0
-407 -427 0
-407 -428 0
-407 -429 0
-407 -430 0
-407 -431 0
-407 -432 0
-407 -433 0
-407 -434 0
-407 -435 0
-407 -436 0
-407 -437 0
-407 -438 0
-407 -439 0
-407 -440 0
-407 -441 0
-407 -442 0
-407 -443 0
-407 -444 0
-407 -445 0
-407 -446 0
-407 -447 0
-407 -448 0
-407 -449 0
-407 -450 0
-407 -451 0
-407 -452 0
-407 -453 0
-407 -454 0
-407 -455 0
-408 -409 0
-408 -410 0
-408 -411 0
-408 -412 0
-408 -413 0
-408 -414 0
-408 -415 0
-408 -416 0
-408 -417 0
-408 -418 0
-408 -419 0
-408 -420 0
-408 -421 0
-408 -422 0
-408 -423 0
-408 -424 0
-408 -425 0
-408 -426 0
-408 -427 0
-408 -428 0
-408 -429 0
-408 -430 0
-408 -431 0
-408 -432 0
-408 -433 0
-408 -434 0
-408 -435 0
-408 -436 0
-408 -437 0
-408 -438 0
-408 -439 0
-408 -440 0
-408 -441 0
-408 -442 0
-408 -443 0
-408 -444 0
-408 -445 0
-408 -446 0
-408 -447 0
-408 -448 0
-408 -449 0
-408 -450 0
-408 -451 0
-408 -452 0
-408 -453 0
-408 -454 0
-408 -455 0
-409 -410 0
-409 -411 0
-409 -412 0
-409 -413 0
-409 -414 0
-409 -415 0
-409 -416 0
-409 -417 0
-409 -418 0
-409 -419 0
-409 -420 0
-409 -421 0
-409 -422 0
-409 -423 0
-409 -424 0
-409 -425 0
-409 -426 0
-409 -427 0
-409 -428 0
-409 -429 0
-409 -430 0
-409 -431 0
-409 -432 0
-409 -433 0
-409 -434 0
-409 -435 0
-409 -436 0
-409 -437 0
-409 -438 0
-409 -439 0
-409 -440 0
-409 -441 0
-409 -442 0
-409 -443 0
-409 -444 0
-409 -445 0
-409 -446 0
-409 -447 0
-409 -448 0
-409 -449 0
-409 -450 0
-409 -451 0
-409 -452 0
-409 -453 0
-409 -454 0
-409 -455 0
-410 -411 0
-410 -412 0
-410 -413 0
-410 -414 0
-410 -415 0
-410 -416 0
-410 -417 0
-410 -418 0
-410 -419 0
-410 -420 0
-410 -421 0
-410 -422 0
-410 -423 0
-410 -424 0
-410 -425 0
-410 -426 0
-410 -427 0
-410 -428 0
-410 -429 0
-410 -430 0
-410 -431 0
-410 -432 0
-410 -433 0
-410 -434 0
-410 -435 0
-410 -436 0
-410 -437 0
-410 -438 0
-410 -439 0
-410 -440 0
-410 -441 0
-410 -442 0
-410 -443 0
-410 -444 0
-410 -445 0
-410 -446 0
-410 -447 0
-410 -448 0
-410 -449 0
-410 -450 0
-410 -451 0
-410 -452 0
-410 -453 0
-410 -454 0
-410 -455 0
-411 -412 0
-411 -413 0
-411 -414 0
-411 -415 0
-411 -416 0
-411 -417 0
-411 -418 0
-411 -419 0
-411 -420 0
-411 -421 0
-411 -422 0
-411 -423 0
-411 -424 0
-411 -425 0
-411 -426 0
-411 -427 0
-411 -428 0
-411 -429 0
-411 -430 0
-411 -431 0
-411 -432 0
-411 -433 0
-411 -434 0
-411 -435 0
-411 -436 0
-411 -437 0
-411 -438 0
-411 -439 0
-411 -440 0
-411 -441 0
-411 -442 0
-411 -443 0
-411 -444 0
-411 -445 0
-411 -446 0
-411 -447 0
-411 -448 0
-411 -449 0
-411 -450 0
-411 -451 0
-411 -452 0
-411 -453 0
-411 -454 0
-411 -455 0
-412 -413 0
-412 -414 0
-412 -415 0
-412 -416 0
-412 -417 0
-412 -418 0
-412 -419 0
-412 -420 0
-412 -421 0
-412 -422 0
-412 -423 0
-412 -424 0
-412 -425 0
-412 -426 0
-412 -427 0
-412 -428 0
-412 -429 0
-412 -430 0
-412 -431 0
-412 -432 0
-412 -433 0
-412 -434 0
-412 -435 0
-412 -436 0
-412 -437 0
-412 -438 0
-412 -439 0
-412 -440 0
-412 -441 0
-412 -442 0
-412 -443 0
-412 -444 0
-412 -445 0
-412 -446 0
-412 -447 0
-412 -448 0
-412 -449 0
-412 -450 0
-412 -451 0
-412 -452 0
-412 -453 0
-412 -454 0
-412 -455 0
-413 -414 0
-413 -415 0
-413 -416 0
-413 -417 0
-413 -418 0
-413 -419 0
-413 -420 0
-413 -421 0
-413 -422 0
-413 -423 0
-413 -424 0
-413 -425 0
-413 -426 0
-413 -427 0
-413 -428 0
-413 -429 0
-413 -430 0
-413 -431 0
-413 -432 0
-413 -433 0
-413 -434 0
-413 -435 0
-413 -436 0
-413 -437 0
-413 -438 0
-413 -439 0
-413 -440 0
-413 -441 0
-413 -442 0
-413 -443 0
-413 -444 0
-413 -445 0
-413 -446 0
-413 -447 0
-413 -448 0
-413 -449 0
-413 -450 0
-413 -451 0
-413 -452 0
-413 -453 0
-413 -454 0
-413 -455 0
-414 -415 0
-414 -416 0
-414 -417 0
-414 -418 0
-414 -419 0
-414 -420 0
-414 -421 0
-414 -422 0
-414 -423 0
-414 -424 0
-414 -425 0
-414 -426 0
-414 -427 0
-414 -428 0
-414 -429 0
-414 -430 0
-414 -431 0
-414 -432 0
-414 -433 0
-414 -434 0
-414 -435 0
-414 -436 0
-414 -437 0
-414 -438 0
-414 -439 0
-414 -440 0
-414 -441 0
-414 -442 0
-414 -443 0
-414 -444 0
-414 -445 0
-414 -446 0
-414 -447 0
-414 -448 0
-414 -449 0
-414 -450 0
-414 -451 0
-414 -452 0
-414 -453 0
-414 -454 0
-414 -455 0
-415 -416 0
-415 -417 0
-415 -418 0
-415 -419 0
-415 -420 0
-415 -421 0
-415 -422 0
-415 -423 0
-415 -424 0
-415 -425 0
-415 -426 0
-415 -427 0
-415 -428 0
-415 -429 0
-415 -430 0
-415 -431 0
-415 -432 0
-415 -433 0
-415 -434 0
-415 -435 0
-415 -436 0
-415 -437 0
-415 -438 0
-415 -439 0
-415 -440 0
-415 -441 0
-415 -442 0
-415 -443 0
-415 -444 0
-415 -445 0
-415 -446 0
-415 -447 0
-415 -448 0
-415 -449 0
-415 -450 0
-415 -451 0
-415 -452 0
-415 -453 0
-415 -454 0
-415 -455 0
-416 -417 0
-416 -418 0
-416 -419 0
-416 -420 0
-416 -421 0
-416 -422 0
-416 -423 0
-416 -424 0
-416 -425 0
-416 -426 0
-416 -427 0
-416 -428 0
-416 -429 0
-416 -430 0
-416 -431 0
-416 -432 0
-416 -433 0
-416 -434 0
-416 -435 0
-416 -436 0
-416 -437 0
-416 -438 0
-416 -439 0
-416 -440 0
-416 -441 0
-416 -442 0
-416 -443 0
-416 -444 0
-416 -445 0
-416 -446 0
-416 -447 0
-416 -448 0
-416 -449 0
-416 -450 0
-416 -451 0
-416 -452 0
-416 -453 0
-416 -454 0
-416 -455 0
-417 -418 0
-417 -419 0
-417 -420 0
-417 -421 0
-417 -422 0
-417 -423 0
-417 -424 0
-417 -425 0
-417 -426 0
-417 -427 0
-417 -428 0
-417 -429 0
-417 -430 0
-417 -431 0
-417 -432 0
-417 -433 0
-417 -434 0
-417 -435 0
-417 -436 0
-417 -437 0
-417 -438 0
-417 -439 0
-417 -440 0
-417 -441 0
-417 -442 0
-417 -443 0
-417 -444 0
-417 -445 0
-417 -446 0
-417 -447 0
-417 -448 0
-417 -449 0
-417 -450 0
-417 -451 0
-417 -452 0
-417 -453 0
-417 -454 0
-417 -455 0
-418 -419 0
-418 -420 0
-418 -421 0
-418 -422 0
-418 -423 0
-418 -424 0
-418 -425 0
-418 -426 0
-418 -427 0
-418 -428 0
-418 -429 0
-418 -430 0
-418 -431 0
-418 -432 0
-418 -433 0
-418 -434 0
-418 -435 0
-418 -436 0
-418 -437 0
-418 -438 0
-418 -439 0
-418 -440 0
-418 -441 0
-418 -442 0
-418 -443 0
-418 -444 0
-418 -445 0
-418 -446 0
-418 -447 0
-418 -448 0
-418 -449 0
-418 -450 0
-418 -451 0
-418 -452 0
-418 -453 0
-418 -454 0
-418 -455 0
-419 -420 0
-419 -421 0
-419 -422 0
-419 -423 0
-419 -424 0
-419 -425 0
-419 -426 0
-419 -427 0
-419 -428 0
-419 -429 0
-419 -430 0
-419 -431 0
-419 -432 0
-419 -433 0
-419 -434 0
-419 -435 0
-419 -436 0
-419 -437 0
-419 -438 0
-419 -439 0
-419 -440 0
-419 -441 0
-419 -442 0
-419 -443 0
-419 -444 0
-419 -445 0
-419 -446 0
-419 -447 0
-419 -448 0
-419 -449 0
-419 -450 0
-419 -451 0
-419 -452 0
-419 -453 0
-419 -454 0
-419 -455 0
-420 -421 0
-420 -422 0
-420 -423 0
-420 -424 0
-420 -425 0
-420 -426 0
-420 -427 0
-420 -428 0
-420 -429 0
-420 -430 0
-420 -431 0
-420 -432 0
-420 -433 0
-420 -434 0
-420 -435 0
-420 -436 0
-420 -437 0
-420 -438 0
-420 -439 0
-420 -440 0
-420 -441 0
-420 -442 0
-420 -443 0
-420 -444 0
-420 -445 0
-420 -446 0
-420 -447 0
-420 -448 0
-420 -449 0
-420 -450 0
-420 -451 0
-420 -452 0
-420 -453 0
-420 -454 0
-420 -455 0
-421 -422 0
-421 -423 0
-421 -424 0
-421 -425 0
-421 -426 0
-421 -427 0
-421 -428 0
-421 -429 0
-421 -430 0
-421 -431 0
-421 -432 0
-421 -433 0
-421 -434 0
-421 -435 0
-421 -436 0
-421 -437 0
-421 -438 0
-421 -439 0
-421 -440 0
-421 -441 0
-421 -442 0
-421 -443 0
-421 -444 0
-421 -445 0
-421 -446 0
-421 -447 0
-421 -448 0
-421 -449 0
-421 -450 0
-421 -451 0
-421 -452 0
-421 -453 0
-421 -454 0
-421 -455 0
-422 -423 0
-422 -424 0
-422 -425 0
-422 -426 0
-422 -427 0
-422 -428 0
-422 -429 0
-422 -430 0
-422 -431 0
-422 -432 0
-422 -433 0
-422 -434 0
-422 -435 0
-422 -436 0
-422 -437 0
-422 -438 0
-422 -439 0
-422 -440 0
-422 -441 0
-422 -442 0
-422 -443 0
-422 -444 0
-422 -445 0
-422 -446 0
-422 -447 0
-422 -448 0
-422 -449 0
-422 -450 0
-422 -451 0
-422 -452 0
-422 -453 0
-422 -454 0
-422 -455 0
-423 -424 0
-423 -425 0
-423 -426 0
-423 -427 0
-423 -428 0
-423 -429 0
-423 -430 0
-423 -431 0
-423 -432 0
-423 -433 0
-423 -434 0
-423 -435 0
-423 -436 0
-423 -437 0
-423 -438 0
-423 -439 0
-423 -440 0
-423 -441 0
-423 -442 0
-423 -443 0
-423 -444 0
-423 -445 0
-423 -446 0
-423 -447 0
-423 -448 0
-423 -449 0
-423 -450 0
-423 -451 0
-423 -452 0
-423 -453 0
-423 -454 0
-423 -455 0
-424 -425 0
-424 -426 0
-424 -427 0
-424 -428 0
-424 -429 0
-424 -430 0
-424 -431 0
-424 -432 0
-424 -433 0
-424 -434 0
-424 -435 0
-424 -436 0
-424 -437 0
-424 -438 0
-424 -439 0
-424 -440 0
-424 -441 0
-424 -442 0
-424 -443 0
-424 -444 0
-424 -445 0
-424 -446 0
-424 -447 0
-424 -448 0
-424 -449 0
-424 -450 0
-424 -451 0
-424 -452 0
-424 -453 0
-424 -454 0
-424 -455 0
-425 -426 0
-425 -427 0
-425 -428 0
-425 -429 0
-425 -430 0
-425 -431 0
-425 -432 0
-425 -433 0
-425 -434 0
-425 -435 0
-425 -436 0
-425 -437 0
-425 -438 0
-425 -439 0
-425 -440 0
-425 -441 0
-425 -442 0
-425 -443 0
-425 -444 0
-425 -445 0
-425 -446 0
-425 -447 0
-425 -448 0
-425 -449 0
-425 -450 0
-425 -451 0
-425 -452 0
-425 -453 0
-425 -454 0
-425 -455 0
-426 -427 0
-426 -428 0
-426 -429 0
-426 -430 0
-426 -431 0
-426 -432 0
-426 -433 0
-426 -434 0
-426 -435 0
-426 -436 0
-426 -437 0
-426 -438 0
-426 -439 0
-426 -440 0
-426 -441 0
-426 -442 0
-426 -443 0
-426 -444 0
-426 -445 0
-426 -446 0
-426 -447 0
-426 -448 0
-426 -449 0
-426 -450 0
-426 -451 0
-426 -452 0
-426 -453 0
-426 -454 0
-426 -455 0
-427 -428 0
-427 -429 0
-427 -430 0
-427 -431 0
-427 -432 0
-427 -433 0
-427 -434 0
-427 -435 0
-427 -436 0
-427 -437 0
-427 -438 0
-427 -439 0
-427 -440 0
-427 -441 0
-427 -442 0
-427 -443 0
-427 -444 0
-427 -445 0
-427 -446 0
-427 -447 0
-427 -448 0
-427 -449 0
-427 -450 0
-427 -451 0
-427 -452 0
-427 -453 0
-427 -454 0
-427 -455 0
-428 -429 0
-428 -430 0
-428 -431 0
-428 -432 0
-428 -433 0
-428 -434 0
-428 -435 0
-428 -436 0
-428 -437 0
-428 -438 0
-428 -439 0
-428 -440 0
-428 -441 0
-428 -442 0
-428 -443 0
-428 -444 0
-428 -445 0
-428 -446 0
-428 -447 0
-428 -448 0
-428 -449 0
-428 -450 0
-428 -451 0
-428 -452 0
-428 -453 0
-428 -454 0
-428 -455 0
-429 -430 0
-429 -431 0
-429 -432 0
-429 -433 0
-429 -434 0
-429 -435 0
-429 -436 0
-429 -437 0
-429 -438 0
-429 -439 0
-429 -440 0
-429 -441 0
-429 -442 0
-429 -443 0
-429 -444 0
-429 -445 0
-429 -446 0
-429 -447 0
-429 -448 0
-429 -449 0
-429 -450 0
-429 -451 0
-429 -452 0
-429 -453 0
-429 -454 0
-429 -455 0
-430 -431 0
-430 -432 0
-430 -433 0
-430 -434 0
-430 -435 0
-430 -436 0
-430 -437 0
-430 -438 0
-430 -439 0
-430 -440 0
-430 -441 0
-430 -442 0
-430 -443 0
-430 -444 0
-430 -445 0
-430 -446 0
-430 -447 0
-430 -448 0
-430 -449 0
-430 -450 0
-430 -451 0
-430 -452 0
-430 -453 0
-430 -454 0
-430 -455 0
-431 -432 0
-431 -433 0
-431 -434 0
-431 -435 0
-431 -436 0
-431 -437 0
-431 -438 0
-431 -439 0
-431 -440 0
-431 -441 0
-431 -442 0
-431 -443 0
-431 -444 0
-431 -445 0
-431 -446 0
-431 -447 0
-431 -448 0
-431 -449 0
-431 -450 0
-431 -451 0
-431 -452 0
-431 -453 0
-431 -454 0
-431 -455 0
-432 -433 0
-432 -434 0
-432 -435 0
-432 -436 0
-432 -437 0
-432 -438 0
-432 -439 0
-432 -440 0
-432 -441 0
-432 -442 0
-432 -443 0
-432 -444 0
-432 -445 0
-432 -446 0
-432 -447 0
-432 -448 0
-432 -449 0
-432 -450 0
-432 -451 0
-432 -452 0
-432 -453 0
-432 -454 0
-432 -455 0
-433 -434 0
-433 -435 0
-433 -436 0
-433 -437 0
-433 -438 0
-433 -439 0
-433 -440 0
-433 -441 0
-433 -442 0
-433 -443 0
-433 -444 0
-433 -445 0
-433 -446 0
-433 -447 0
-433 -448 0
-433 -449 0
-433 -450 0
-433 -451 0
-433 -452 0
-433 -453 0
-433 -454 0
-433 -455 0
-434 -435 0
-434 -436 0
-434 -437 0
-434 -438 0
-434 -439 0
-434 -440 0
-434 -441 0
-434 -442 0
-434 -443 0
-434 -444 0
-434 -445 0
-434 -446 0
-434 -447 0
-434 -448 0
-434 -449 0
-434 -450 0
-434 -451 0
-434 -452 0
-434 -453 0
-434 -454 0
-434 -455 0
-435 -436 0
-435 -437 0
-435 -438 0
-435 -439 0
-435 -440 0
-435 -441 0
-435 -442 0
-435 -443 0
-435 -444 0
-435 -445 0
-435 -446 0
-435 -447 0
-435 -448 0
-435 -449 0
-435 -450 0
-435 -451 0
-435 -452 0
-435 -453 0
-435 -454 0
-435 -455 0
-436 -437 0
-436 -438 0
-436 -439 0
-436 -440 0
-436 -441 0
-436 -442 0
-436 -443 0
-436 -444 0
-436 -445 0
-436 -446 0
-436 -447 0
-436 -448 0
-436 -449 0
-436 -450 0
-436 -451 0
-436 -452 0
-436 -453 0
-436 -454 0
-436 -455 0
-437 -438 0
-437 -439 0
-437 -440 0
-437 -441 0
-437 -442 0
-437 -443 0
-437 -444 0
-437 -445 0
-437 -446 0
-437 -447 0
-437 -448 0
-437 -449 0
-437 -450 0
-437 -451 0
-437 -452 0
-437 -453 0
-437 -454 0
-437 -455 0
-438 -439 0
-438 -440 0
-438 -441 0
-438 -442 0
-438 -443 0
-438 -444 0
-438 -445 0
-438 -446 0
-438 -447 0
-438 -448 0
-438 -449 0
-438 -450 0
-438 -451 0
-438 -452 0
-438 -453 0
-438 -454 0
-438 -455 0
-439 -440 0
-439 -441 0
-439 -442 0
-439 -443 0
-439 -444 0
-439 -445 0
-439 -446 0
-439 -447 0
-439 -448 0
-439 -449 0
-439 -450 0
-439 -451 0
-439 -452 0
-439 -453 0
-439 -454 0
-439 -455 0
-440 -441 0
-440 -442 0
-440 -443 0
-440 -444 0
-440 -445 0
-440 -446 0
-440 -447 0
-440 -448 0
-440 -449 0
-440 -450 0
-440 -451 0
-440 -452 0
-440 -453 0
-440 -454 0
-440 -455 0
-441 -442 0
-441 -443 0
-441 -444 0
-441 -445 0
-441 -446 0
-441 -447 0
-441 -448 0
-441 -449 0
-441 -450 0
-441 -451 0
-441 -452 0
-441 -453 0
-441 -454 0
-441 -455 0
-442 -443 0
-442 -444 0
-442 -445 0
-442 -446 0
-442 -447 0
-442 -448 0
-442 -449 0
-442 -450 0
-442 -451 0
-442 -452 0
-442 -453 0
-442 -454 0
-442 -455 0
-443 -444 0
-443 -445 0
-443 -446 0
-443 -447 0
-443 -448 0
-443 -449 0
-443 -450 0
-443 -451 0
-443 -452 0
-443 -453 0
-443 -454 0
-443 -455 0
-444 -445 0
-444 -446 0
-444 -447 0
-444 -448 0
-444 -449 0
-444 -450 0
-444 -451 0
-444 -452 0
-444 -453 0
-444 -454 0
-444 -455 0
-445 -446 0
-445 -447 0
-445 -448 0
-445 -449 0
-445 -450 0
-445 -451 0
-445 -452 0
-445 -453 0
-445 -454 0
-445 -455 0
-446 -447 0
-446 -448 0
-446 -449 0
-446 -450 0
-446 -451 0
-446 -452 0
-446 -453 0
-446 -454 0
-446 -455 0
-447 -448 0
-447 -449 0
-447 -450 0
-447 -451 0
-447 -452 0
-447 -453 0
-447 -454 0
-447 -455 0
-448 -449 0
-448 -450 0
-448 -451 0
-448 -452 0
-448 -453 0
-448 -454 0
-448 -455 0
-449 -450 0
-449 -451 0
-449 -452 0
-449 -453 0
-449 -454 0
-449 -455 0
-450 -451 0
-450 -452 0
-450 -453 0
-450 -454 0
-450 -455 0
-451 -452 0
-451 -453 0
-451 -454 0
-451 -455 0
-452 -453 0
-452 -454 0
-452 -455 0
-453 -454 0
-453 -455 0
-454 -455 0
456 457 458 459 460 461 462 463 464 465 466 467 468 469 470 471 472 473 474 475 476 477 478 479 480 481 482 483 484 485 486 487 488 489 490 491 492 493 494 495 496 497 498 499 500 501 502 503 504 505 506 507 508 509 510 511 512 513 514 515 516 517 518 519 520 521 522 523 524 525 526 527 528 529 530 531 532 533 534 535 536 537 538 539 0
-456 -457 0
-456 -458 0
-456 -459 0
-456 -460 0
-456 -461 0
-456 -462 0
-456 -463 0
-456 -464 0
-456 -465 0
-456 -466 0
-456 -467 0
-456 -468 0
-456 -469 0
-456 -470 0
-456 -471 0
-456 -472 0
-456 -473 0
-456 -474 0
-456 -475 0
-456 -476 0
-456 -477 0
-456 -478 0
-456 -479 0
-456 -480 0
-456 -481 0
-456 -482 0
-456 -483 0
-456 -484 0
-456 -485 0
-456 -486 0
-456 -487 0
-456 -488 0
-456 -489 0
-456 -490 0
-456 -491 0
-456 -492 0
-456 -493 0
-456 -494 0
-456 -495 0
-456 -496 0
-456 -497 0
-456 -498 0
-456 -499 0
-456 -500 0
-456 -501 0
-456 -502 0
-456 -503 0
-456 -504 0
-456 -505 0
-456 -506 0
-456 -507 0
-456 -508 0
-456 -509 0
-456 -510 0
-456 -511 0
-456 -512 0
-456 -513 0
-456 -514 0
-456 -515 0
-456 -516 0
-456 -517 0
-456 -518 0
-456 -519 0
-456 -520 0
-456 -521 0
-456 -522 0
-456 -523 0
-456 -524 0
-456 -525 0
-456 -526 0
-456 -527 0
-456 -528 0
-456 -529 0
-456 -530 0
-456 -531 0
-456 -532 0
-456 -533 0
-456 -534 0
-456 -535 0
-456 -536 0
-456 -537 0
-456 -538 0
-456 -539 0
-457 -458 0
-457 -459 0
-457 -460 0
-457 -461 0
-457 -462 0
-457 -463 0
-457 -464 0
-457 -465 0
-457 -466 0
-457 -467 0
-457 -468 0
-457 -469 0
-457 -470 0
-457 -471 0
-457 -472 0
-457 -473 0
-457 -474 0
-457 -475 0
-457 -476 0
-457 -477 0
-457 -478 0
-457 -479 0
-457 -480 0
-457 -481 0
-457 -482 0
-457 -483 0
-457 -484 0
-457 -485 0
-457 -486 0
-457 -487 0
-457 -488 0
-457 -489 0
-457 -490 0
-457 -491 0
-457 -492 0
-457 -493 0
-457 -494 0
-457 -495 0
-457 -496 0
-457 -497 0
-457 -498 0
-457 -499 0
-457 -500 0
-457 -501 0
-457 -502 0
-457 -503 0
-457 -504 0
-457 -505 0
-457 -506 0
-457 -507 0
-457 -508 0
-457 -509 0
-457 -510 0
-457 -511 0
-457 -512 0
-457 -513 0
-457 -514 0
-457 -515 0
-457 -516 0
-457 -517 0
-457 -518 0
-457 -519 0
-457 -520 0
-457 -521 0
-457 -522 0
-457 -523 0
-457 -524 0
-457 -525 0
-457 -526 0
-457 -527 0
-457 -528 0
-457 -529 0
-457 -530 0
-457 -531 0
-457 -532 0
-457 -533 0
-457 -534 0
-457 -535 0
-457 -536 0
-457 -537 0
-457 -538 0
-457 -539 0
-458 -459 0
-458 -460 0
-458 -461 0
-458 -462 0
-458 -463 0
-458 -464 0
-458 -465 0
-458 -466 0
-458 -467 0
-458 -468 0
-458 -469 0
-458 -470 0
-458 -471 0
-458 -472 0
-458 -473 0
-458 -474 0
-458 -475 0
-458 -476 0
-458 -477 0
-458 -478 0
-458 -479 0
-458 -480 0
-458 -481 0
-458 -482 0
-458 -483 0
-458 -484 0
-458 -485 0
-458 -486 0
-458 -487 0
-458 -488 0
-458 -489 0
-458 -490 0
-458 -491 0
-458 -492 0
-458 -493 0
-458 -494 0
-458 -495 0
-458 -496 0
-458 -497 0
-458 -498 0
-458 -499 0
-458 -500 0
-458 -501 0
-458 -502 0
-458 -503 0
-458 -504 0
-458 -505 0
-458 -506 0
-458 -507 0
-458 -508 0
-458 -509 0
-458 -510 0
-458 -511 0
-458 -512 0
-458 -513 0
-458 -514 0
-458 -515 0
-458 -516 0
-458 -517 0
-458 -518 0
-458 -519 0
-458 -520 0
-458 -521 0
-458 -522 0
-458 -523 0
-458 -524 0
-458 -525 0
-458 -526 0
-458 -527 0
-458 -528 0
-458 -529 0
-458 -530 0
-458 -531 0
-458 -532 0
-458 -533 0
-458 -534 0
-458 -535 0
-458 -536 0
-458 -537 0
-458 -538 0
-458 -539 0
-459 -460 0
-459 -461 0
-459 -462 0
-459 -463 0
-459 -464 0
-459 -465 0
-459 -466 0
-459 -467 0
-459 -468 0
-459 -469 0
-459 -470 0
-459 -471 0
-459 -472 0
-459 -473 0
-459 -474 0
-459 -475 0
-459 -476 0
-459 -477 0
-459 -478 0
-459 -479 0
-459 -480 0
-459 -481 0
-459 -482 0
-459 -483 0
-459 -484 0
-459 -485 0
-459 -486 0
-459 -487 0
-459 -488 0
-459 -489 0
-459 -490 0
-459 -491 0
-459 -492 0
-459 -493 0
-459 -494 0
-459 -495 0
-459 -496 0
-459 -497 0
-459 -498 0
-459 -499 0
-459 -500 0
-459 -501 0
-459 -502 0
-459 -503 0
-459 -504 0
-459 -505 0
-459 -506 0
-459 -507 0
-459 -508 0
-459 -509 0
-459 -510 0
-459 -511 0
-459 -512 0
-459 -513 0
-459 -514 0
-459 -515 0
-459 -516 0
-459 -517 0
-459 -518 0
-459 -519 0
-459 -520 0
-459 -521 0
-459 -522 0
-459 -523 0
-459 -524 0
-459 -525 0
-459 -526 0
-459 -527 0
-459 -528 0
-459 -529 0
-459 -530 0
-459 -531 0
-459 -532 0
-459 -533 0
-459 -534 0
-459 -535 0
-459 -536 0
-459 -537 0
-459 -538 0
-459 -539 0
-460 -461 0
-460 -462 0
-460 -463 0
-460 -464 0
-460 -465 0
-460 -466 0
-460 -467 0
-460 -468 0
-460 -469 0
-460 -470 0
-460 -471 0
-460 -472 0
-460 -473 0
-460 -474 0
-460 -475 0
-460 -476 0
-460 -477 0
-460 -478 0
-460 -479 0
-460 -480 0
-460 -481 0
-460 -482 0
-460 -483 0
-460 -484 0
-460 -485 0
-460 -486 0
-460 -487 0
-460 -488 0
-460 -489 0
-460 -490 0
-460 -491 0
-460 -492 0
-460 -493 0
-460 -494 0
-460 -495 0
-460 -496 0
-460 -497 0
-460 -498 0
-460 -499 0
-460 -500 0
-460 -501 0
-460 -502 0
-460 -503 0
-460 -504 0
-460 -505 0
-460 -506 0
-460 -507 0
-460 -508 0
-460 -509 0
-460 -510 0
-460 -511 0
-460 -512 0
-460 -513 0
-460 -514 0
-460 -515 0
-460 -516 0
-460 -517 0
-460 -518 0
-460 -519 0
-460 -520 0
-460 -521 0
-460 -522 0
-460 -523 0
-460 -524 0
-460 -525 0
-460 -526 0
-460 -527 0
-460 -528 0
-460 -529 0
-460 -530 0
-460 -531 0
-460 -532 0
-460 -533 0
-460 -534 0
-460 -535 0
-460 -536 0
-460 -537 0
-460 -538 0
-460 -539 0
-461 -462 0
-461 -463 0
-461 -464 0
-461 -465 0
-461 -466 0
-461 -467 0
-461 -468 0
-461 -469 0
-461 -470 0
-461 -471 0
-461 -472 0
-461 -473 0
-461 -474 0
-461 -475 0
-461 -476 0
-461 -477 0
-461 -478 0
-461 -479 0
-461 -480 0
-461 -481 0
-461 -482 0
-461 -483 0
-461 -484 0
-461 -485 0
-461 -486 0
-461 -487 0
-461 -488 0
-461 -489 0
-461 -490 0
-461 -491 0
-461 -492 0
-461 -493 0
-461 -494 0
-461 -495 0
-461 -496 0
-461 -497 0
-461 -498 0
-461 -499 0
-461 -500 0
-461 -501 0
-461 -502 0
-461 -503 0
-461 -504 0
-461 -505 0
-461 -506 0
-461 -507 0
-461 -508 0
-461 -509 0
-461 -510 0
-461 -511 0
-461 -512 0
-461 -513 0
-461 -514 0
-461 -515 0
-461 -516 0
-461 -517 0
-461 -518 0
-461 -519 0
-461 -520 0
-461 -521 0
-461 -522 0
-461 -523 0
-461 -524 0
-461 -525 0
-461 -526 0
-461 -527 0
-461 -528 0
-461 -529 0
-461 -530 0
-461 -531 0
-461 -532 0
-461 -533 0
-461 -534 0
-461 -535 0
-461 -536 0
-461 -537 0
-461 -538 0
-461 -539 0
-462 -463 0
-462 -464 0
-462 -465 0
-462 -466 0
-462 -467 0
-462 -468 0
-462 -469 0
-462 -470 0
-462 -471 0
-462 -472 0
-462 -473 0
-462 -474 0
-462 -475 0
-462 -476 0
-462 -477 0
-462 -478 0
-462 -479 0
-462 -480 0
-462 -481 0
-462 -482 0
-462 -483 0
-462 -484 0
-462 -485 0
-462 -486 0
-462 -487 0
-462 -488 0
-462 -489 0
-462 -490 0
-462 -491 0
-462 -492 0
-462 -493 0
-462 -494 0
-462 -495 0
-462 -496 0
-462 -497 0
-462 -498 0
-462 -499 0
-462 -500 0
-462 -501 0
-462 -502 0
-462 -503 0
-462 -504 0
-462 -505 0
-462 -506 0
-462 -507 0
-462 -508 0
-462 -509 0
-462 -510 0
-462 -511 0
-462 -512 0
-462 -513 0
-462 -514 0
-462 -515 0
-462 -516 0
-462 -517 0
-462 -518 0
-462 -519 0
-462 -520 0
-462 -521 0
-462 -522 0
-462 -523 0
-462 -524 0
-462 -525 0
-462 -526 0
-462 -527 0
-462 -528 0
-462 -529 0
-462 -530 0
-462 -531 0
-462 -532 0
-462 -533 0
-462 -534 0
-462 -535 0
-462 -536 0
-462 -537 0
-462 -538 0
-462 -539 0
-463 -464 0
-463 -465 0
-463 -466 0
-463 -467 0
-463 -468 0
-463 -469 0
-463 -470 0
-463 -471 0
-463 -472 0
-463 -473 0
-463 -474 0
-463 -475 0
-463 -476 0
-463 -477 0
-463 -478 0
-463 -479 0
-463 -480 0
-463 -481 0
-463 -482 0
-463 -483 0
-463 -484 0
-463 -485 0
-463 -486 0
-463 -487 0
-463 -488 0
-463 -489 0
-463 -490 0
-463 -491 0
-463 -492 0
-463 -493 0
-463 -494 0
-463 -495 0
-463 -496 0
-463 -497 0
-463 -498 0
-463 -499 0
-463 -500 0
-463 -501 0
-463 -502 0
-463 -503 0
-463 -504 0
-463 -505 0
-463 -506 0
-463 -507 0
-463 -508 0
-463 -509 0
-463 -510 0
-463 -511 0
-463 -512 0
-463 -513 0
-463 -514 0
-463 -515 0
-463 -516 0
-463 -517 0
-463 -518 0
-463 -519 0
-463 -520 0
-463 -521 0
-463 -522 0
-463 -523 0
-463 -524 0
-463 -525 0
-463 -526 0
-463 -527 0
-463 -528 0
-463 -529 0
-463 -530 0
-463 -531 0
-463 -532 0
-463 -533 0
-463 -534 0
-463 -535 0
-463 -536 0
-463 -537 0
-463 -538 0
-463 -539 0
-464 -465 0
-464 -466 0
-464 -467 0
-464 -468 0
-464 -469 0
-464 -470 0
-464 -471 0
-464 -472 0
-464 -473 0
-464 -474 0
-464 -475 0
-464 -476 0
-464 -477 0
-464 -478 0
-464 -479 0
-464 -480 0
-464 -481 0
-464 -482 0
-464 -483 0
-464 -484 0
-464 -485 0
-464 -486 0
-464 -487 0
-464 -488 0
-464 -489 0
-464 -490 0
-464 -491 0
-464 -492 0
-464 -493 0
-464 -494 0
-464 -495 0
-464 -496 0
-464 -497 0
-464 -498 0
-464 -499 0
-464 -500 0
-464 -501 0
-464 -502 0
-464 -503 0
-464 -504 0
-464 -505 0
-464 -506 0
-464 -507 0
-464 -508 0
-464 -509 0
-464 -510 0
-464 -511 0
-464 -512 0
-464 -513 0
-464 -514 0
-464 -515 0
-464 -516 0
-464 -517 0
-464 -518 0
-464 -519 0
-464 -520 0
-464 -521 0
-464 -522 0
-464 -523 0
-464 -524 0
-464 -525 0
-464 -526 0
-464 -527 0
-464 -528 0
-464 -529 0
-464 -530 0
-464 -531 0
-464 -532 0
-464 -533 0
-464 -534 0
-464 -535 0
-464 -536 0
-464 -537 0
-464 -538 0
-464 -539 0
-465 -466 0
-465 -467 0
-465 -468 0
-465 -469 0
-465 -470 0
-465 -471 0
-465 -472 0
-465 -473 0
-465 -474 0
-465 -475 0
-465 -476 0
-465 -477 0
-465 -478 0
-465 -479 0
-465 -480 0
-465 -481 0
-465 -482 0
-465 -483 0
-465 -484 0
-465 -485 0
-465 -486 0
-465 -487 0
-465 -488 0
-465 -489 0
-465 -490 0
-465 -491 0
-465 -492 0
-465 -493 0
-465 -494 0
-465 -495 0
-465 -496 0
-465 -497 0
-465 -498 0
-465 -499 0
-465 -500 0
-465 -501 0
-465 -502 0
-465 -503 0
-465 -504 0
-465 -505 0
-465 -506 0
-465 -507 0
-465 -508 0
-465 -509 0
-465 -510 0
-465 -511 0
-465 -512 0
-465 -513 0
-465 -514 0
-465 -515 0
-465 -516 0
-465 -517 0
-465 -518 0
-465 -519 0
-465 -520 0
-465 -521 0
-465 -522 0
-465 -523 0
-465 -524 0
-465 -525 0
-465 -526 0
-465 -527 0
-465 -528 0
-465 -529 0
-465 -530 0
-465 -531 0
-465 -532 0
-465 -533 0
-465 -534 0
-465 -535 0
-465 -536 0
-465 -537 0
-465 -538 0
-465 -539 0
-466 -467 0
-466 -468 0
-466 -469 0
-466 -470 0
-466 -471 0
-466 -472 0
-466 -473 0
-466 -474 0
-466 -475 0
-466 -476 0
-466 -477 0
-466 -478 0
-466 -479 0
-466 -480 0
-466 -481 0
-466 -482 0
-466 -483 0
-466 -484 0
-466 -485 0
-466 -486 0
-466 -487 0
-466 -488 0
-466 -489 0
-466 -490 0
-466 -491 0
-466 -492 0
-466 -493 0
-466 -494 0
-466 -495 0
-466 -496 0
-466 -497 0
-466 -498 0
-466 -499 0
-466 -500 0
-466 -501 0
-466 -502 0
-466 -503 0
-466 -504 0
-466 -505 0
-466 -506 0
-466 -507 0
-466 -508 0
-466 -509 0
-466 -510 0
-466 -511 0
-466 -512 0
-466 -513 0
-466 -514 0
-466 -515 0
-466 -516 0
-466 -517 0
-466 -518 0
-466 -519 0
-466 -520 0
-466 -521 0
-466 -522 0
-466 -523 0
-466 -524 0
-466 -525 0
-466 -526 0
-466 -527 0
-466 -528 0
-466 -529 0
-466 -530 0
-466 -531 0
-466 -532 0
-466 -533 0
-466 -534 0
-466 -535 0
-466 -536 0
-466 -537 0
-466 -538 0
-466 -539 0
-467 -468 0
-467 -469 0
-467 -470 0
-467 -471 0
-467 -472 0
-467 -473 0
-467 -474 0
-467 -475 0
-467 -476 0
-467 -477 0
-467 -478 0
-467 -479 0
-467 -480 0
-467 -481 0
-467 -482 0
-467 -483 0
-467 -484 0
-467 -485 0
-467 -486 0
-467 -487 0
-467 -488 0
-467 -489 0
-467 -490 0
-467 -491 0
-467 -492 0
-467 -493 0
-467 -494 0
-467 -495 0
-467 -496 0
-467 -497 0
-467 -498 0
-467 -499 0
-467 -500 0
-467 -501 0
-467 -502 0
-467 -503 0
-467 -504 0
-467 -505 0
-467 -506 0
-467 -507 0
-467 -508 0
-467 -509 0
-467 -510 0
-467 -511 0
-467 -512 0
-467 -513 0
-467 -514 0
-467 -515 0
-467 -516 0
-467 -517 0
-467 -518 0
-467 -519 0
-467 -520 0
-467 -521 0
-467 -522 0
-467 -523 0
-467 -524 0
-467 -525 0
-467 -526 0
-467 -527 0
-467 -528 0
-467 -529 0
-467 -530 0
-467 -531 0
-467 -532 0
-467 -533 0
-467 -534 0
-467 -535 0
-467 -536 0
-467 -537 0
-467 -538 0
-467 -539 0
-468 -469 0
-468 -470 0
-468 -471 0
-468 -472 0
-468 -473 0
-468 -474 0
-468 -475 0
-468 -476 0
-468 -477 0
-468 -478 0
-468 -479 0
-468 -480 0
-468 -481 0
-468 -482 0
-468 -483 0
-468 -484 0
-468 -485 0
-468 -486 0
-468 -487 0
-468 -488 0
-468 -489 0
-468 -490 0
-468 -491 0
-468 -492 0
-468 -493 0
-468 -494 0
-468 -495 0
-468 -496 0
-468 -497 0
-468 -498 0
-468 -499 0
-468 -500 0
-468 -501 0
-468 -502 0
-468 -503 0
-468 -504 0
-468 -505 0
-468 -506 0
-468 -507 0
-468 -508 0
-468 -509 0
-468 -510 0
-468 -511 0
-468 -512 0
-468 -513 0
-468 -514 0
-468 -515 0
-468 -516 0
-468 -517 0
-468 -518 0
-468 -519 0
-468 -520 0
-468 -521 0
-468 -522 0
-468 -523 0
-468 -524 0
-468 -525 0
-468 -526 0
-468 -527 0
-468 -528 0
-468 -529 0
-468 -530 0
-468 -531 0
-468 -532 0
-468 -533 0
-468 -534 0
-468 -535 0
-468 -536 0
-468 -537 0
-468 -538 0
-468 -539 0
-469 -470 0
-469 -471 0
-469 -472 0
-469 -473 0
-469 -474 0
-469 -475 0
-469 -476 0
-469 -477 0
-469 -478 0
-469 -479 0
-469 -480 0
-469 -481 0
-469 -482 0
-469 -483 0
-469 -484 0
-469 -485 0
-469 -486 0
-469 -487 0
-469 -488 0
-469 -489 0
-469 -490 0
-469 -491 0
-469 -492 0
-469 -493 0
-469 -494 0
-469 -495 0
-469 -496 0
-469 -497 0
-469 -498 0
-469 -499 0
-469 -500 0
-469 -501 0
-469 -502 0
-469 -503 0
-469 -504 0
-469 -505 0
-469 -506 0
-469 -507 0
-469 -508 0
-469 -509 0
-469 -510 0
-469 -511 0
-469 -512 0
-469 -513 0
-469 -514 0
-469 -515 0
-469 -516 0
-469 -517 0
-469 -518 0
-469 -519 0
-469 -520 0
-469 -521 0
-469 -522 0
-469 -523 0
-469 -524 0
-469 -525 0
-469 -526 0
-469 -527 0
-469 -528 0
-469 -529 0
-469 -530 0
-469 -531 0
-469 -532 0
-469 -533 0
-469 -534 0
-469 -535 0
-469 -536 0
-469 -537 0
-469 -538 0
-469 -539 0
-470 -471 0
-470 -472 0
-470 -473 0
-470 -474 0
-470 -475 0
-470 -476 0
-470 -477 0
-470 -478 0
-470 -479 0
-470 -480 0
-470 -481 0
-470 -482 0
-470 -483 0
-470 -484 0
-470 -485 0
-470 -486 0
-470 -487 0
-470 -488 0
-470 -489 0
-470 -490 0
-470 -491 0
-470 -492 0
-470 -493 0
-470 -494 0
-470 -495 0
-470 -496 0
-470 -497 0
-470 -498 0
-470 -499 0
-470 -500 0
-470 -501 0
-470 -502 0
-470 -503 0
-470 -504 0
-470 -505 0
-470 -506 0
-470 -507 0
-470 -508 0
-470 -509 0
-470 -510 0
-470 -511 0
-470 -512 0
-470 -513 0
-470 -514 0
-470 -515 0
-470 -516 0
-470 -517 0
-470 -518 0
-470 -519 0
-470 -520 0
-470 -521 0
-470 -522 0
-470 -523 0
-470 -524 0
-470 -525 0
-470 -526 0
-470 -527 0
-470 -528 0
-470 -529 0
-470 -530 0
-470 -531 0
-470 -532 0
-470 -533 0
-470 -534 0
-470 -535 0
-470 -536 0
-470 -537 0
-470 -538 0
-470 -539 0
-471 -472 0
-471 -473 0
-471 -474 0
-471 -475 0
-471 -476 0
-471 -477 0
-471 -478 0
-471 -479 0
-471 -480 0
-471 -481 0
-471 -482 0
-471 -483 0
-471 -484 0
-471 -485 0
-471 -486 0
-471 -487 0
-471 -488 0
-471 -489 0
-471 -490 0
-471 -491 0
-471 -492 0
-471 -493 0
-471 -494 0
-471 -495 0
-471 -496 0
-471 -497 0
-471 -498 0
-471 -499 0
-471 -500 0
-471 -501 0
-471 -502 0
-471 -503 0
-471 -504 0
-471 -505 0
-471 -506 0
-471 -507 0
-471 -508 0
-471 -509 0
-471 -510 0
-471 -511 0
-471 -512 0
-471 -513 0
-471 -514 0
-471 -515 0
-471 -516 0
-471 -517 0
-471 -518 0
-471 -519 0
-471 -520 0
-471 -521 0
-471 -522 0
-471 -523 0
-471 -524 0
-471 -525 0
-471 -526 0
-471 -527 0
-471 -528 0
-471 -529 0
-471 -530 0
-471 -531 0
-471 -532 0
-471 -533 0
-471 -534 0
-471 -535 0
-471 -536 0
-471 -537 0
-471 -538 0
-471 -539 0
-472 -473 0
-472 -474 0
-472 -475 0
-472 -476 0
-472 -477 0
-472 -478 0
-472 -479 0
-472 -480 0
-472 -481 0
-472 -482 0
-472 -483 0
-472 -484 0
-472 -485 0
-472 -486 0
-472 -487 0
-472 -488 0
-472 -489 0
-472 -490 0
-472 -491 0
-472 -492 0
-472 -493 0
-472 -494 0
-472 -495 0
-472 -496 0
-472 -497 0
-472 -498 0
-472 -499 0
-472 -500 0
-472 -501 0
-472 -502 0
-472 -503 0
-472 -504 0
-472 -505 0
-472 -506 0
-472 -507 0
-472 -508 0
-472 -509 0
-472 -510 0
-472 -511 0
-472 -512 0
-472 -513 0
-472 -514 0
-472 -515 0
-472 -516 0
-472 -517 0
-472 -518 0
-472 -519 0
-472 -520 0
-472 -521 0
-472 -522 0
-472 -523 0
-472 -524 0
-472 -525 0
-472 -526 0
-472 -527 0
-472 -528 0
-472 -529 0
-472 -530 0
-472 -531 0
-472 -532 0
-472 -533 0
-472 -534 0
-472 -535 0
-472 -536 0
-472 -537 0
-472 -538 0
-472 -539 0
-473 -474 0
-473 -475 0
-473 -476 0
-473 -477 0
-473 -478 0
-473 -479 0
-473 -480 0
-473 -481 0
-473 -482 0
-473 -483 0
-473 -484 0
-473 -485 0
-473 -486 0
-473 -487 0
-473 -488 0
-473 -489 0
-473 -490 0
-473 -491 0
-473 -492 0
-473 -493 0
-473 -494 0
-473 -495 0
-473 -496 0
-473 -497 0
-473 -498 0
-473 -499 0
-473 -500 0
-473 -501 0
-473 -502 0
-473 -503 0
-473 -504 0
-473 -505 0
-473 -506 0
-473 -507 0
-473 -508 0
-473 -509 0
-473 -510 0
-473 -511 0
-473 -512 0
-473 -513 0
-473 -514 0
-473 -515 0
-473 -516 0
-473 -517 0
-473 -518 0
-473 -519 0
-473 -520 0
-473 -521 0
-473 -522 0
-473 -523 0
-473 -524 0
-473 -525 0
-473 -526 0
-473 -527 0
-473 -528 0
-473 -529 0
-473 -530 0
-473 -531 0
-473 -532 0
-473 -533 0
-473 -534 0
-473 -535 0
-473 -536 0
-473 -537 0
-473 -538 0
-473 -539 0
-474 -475 0
-474 -476 0
-474 -477 0
-474 -478 0
-474 -479 0
-474 -480 0
-474 -481 0
-474 -482 0
-474 -483 0
-474 -484 0
-474 -485 0
-474 -486 0
-474 -487 0
-474 -488 0
-474 -489 0
-474 -490 0
-474 -491 0
-474 -492 0
-474 -493 0
-474 -494 0
-474 -495 0
-474 -496 0
-474 -497 0
-474 -498 0
-474 -499 0
-474 -500 0
-474 -501 0
-474 -502 0
-474 -503 0
-474 -504 0
-474 -505 0
-474 -506 0
-474 -507 0
-474 -508 0
-474 -509 0
-474 -510 0
-474 -511 0
-474 -512 0
-474 -513 0
-474 -514 0
-474 -515 0
-474 -516 0
-474 -517 0
-474 -518 0
-474 -519 0
-474 -520 0
-474 -521 0
-474 -522 0
-474 -523 0
-474 -524 0
-474 -525 0
-474 -526 0
-474 -527 0
-474 -528 0
-474 -529 0
-474 -530 0
-474 -531 0
-474 -532 0
-474 -533 0
-474 -534 0
-474 -535 0
-474 -536 0
-474 -537 0
-474 -538 0
-474 -539 0
-475 -476 0
-475 -477 0
-475 -478 0
-475 -479 0
-475 -480 0
-475 -481 0
-475 -482 0
-475 -483 0
-475 -484 0
-475 -485 0
-475 -486 0
-475 -487 0
-475 -488 0
-475 -489 0
-475 -490 0
-475 -491 0
-475 -492 0
-475 -493 0
-475 -494 0
-475 -495 0
-475 -496 0
-475 -497 0
-475 -498 0
-475 -499 0
-475 -500 0
-475 -501 0
-475 -502 0
-475 -503 0
-475 -504 0
-475 -505 0
-475 -506 0
-475 -507 0
-475 -508 0
-475 -509 0
-475 -510 0
-475 -511 0
-475 -512 0
-475 -513 0
-475 -514 0
-475 -515 0
-475 -516 0
-475 -517 0
-475 -518 0
-475 -519 0
-475 -520 0
-475 -521 0
-475 -522 0
-475 -523 0
-475 -524 0
-475 -525 0
-475 -526 0
-475 -527 0
-475 -528 0
-475 -529 0
-475 -530 0
-475 -531 0
-475 -532 0
-475 -533 0
-475 -534 0
-475 -535 0
-475 -536 0
-475 -537 0
-475 -538 0
-475 -539 0
-476 -477 0
-476 -478 0
-476 -479 0
-476 -480 0
-476 -481 0
-476 -482 0
-476 -483 0
-476 -484 0
-476 -485 0
-476 -486 0
-476 -487 0
-476 -488 0
-476 -489 0
-476 -490 0
-476 -491 0
-476 -492 0
-476 -493 0
-476 -494 0
-476 -495 0
-476 -496 0
-476 -497 0
-476 -498 0
-476 -499 0
-476 -500 0
-476 -501 0
-476 -502 0
-476 -503 0
-476 -504 0
-476 -505 0
-476 -506 0
-476 -507 0
-476 -508 0
-476 -509 0
-476 -510 0
-476 -511 0
-476 -512 0
-476 -513 0
-476 -514 0
-476 -515 0
-476 -516 0
-476 -517 0
-476 -518 0
-476 -519 0
-476 -520 0
-476 -521 0
-476 -522 0
-476 -523 0
-476 -524 0
-476 -525 0
-476 -526 0
-476 -527 0
-476 -528 0
-476 -529 0
-476 -530 0
-476 -531 0
-476 -532 0
-476 -533 0
-476 -534 0
-476 -535 0
-476 -536 0
-476 -537 0
-476 -538 0
-476 -539 0
-477 -478 0
-477 -479 0
-477 -480 0
-477 -481 0
-477 -482 0
-477 -483 0
-477 -484 0
-477 -485 0
-477 -486 0
-477 -487 0
-477 -488 0
-477 -489 0
-477 -490 0
-477 -491 0
-477 -492 0
-477 -493 0
-477 -494 0
-477 -495 0
-477 -496 0
-477 -497 0
-477 -498 0
-477 -499 0
-477 -500 0
-477 -501 0
-477 -502 0
-477 -503 0
-477 -504 0
-477 -505 0
-477 -506 0
-477 -507 0
-477 -508 0
-477 -509 0
-477 -510 0
-477 -511 0
-477 -512 0
-477 -513 0
-477 -514 0
-477 -515 0
-477 -516 0
-477 -517 0
-477 -518 0
-477 -519 0
-477 -520 0
-477 -521 0
-477 -522 0
-477 -523 0
-477 -524 0
-477 -525 0
-477 -526 0
-477 -527 0
-477 -528 0
-477 -529 0
-477 -530 0
-477 -531 0
-477 -532 0
-477 -533 0
-477 -534 0
-477 -535 0
-477 -536 0
-477 -537 0
-477 -538 0
-477 -539 0
-478 -479 0
-478 -480 0
-478 -481 0
-478 -482 0
-478 -483 0
-478 -484 0
-478 -485 0
-478 -486 0
-478 -487 0
-478 -488 0
-478 -489 0
-478 -490 0
-478 -491 0
-478 -492 0
-478 -493 0
-478 -494 0
-478 -495 0
-478 -496 0
-478 -497 0
-478 -498 0
-478 -499 0
-478 -500 0
-478 -501 0
-478 -502 0
-478 -503 0
-478 -504 0
-478 -505 0
-478 -506 0
-478 -507 0
-478 -508 0
-478 -509 0
-478 -510 0
-478 -511 0
-478 -512 0
-478 -513 0
-478 -514 0
-478 -515 0
-478 -516 0
-478 -517 0
-478 -518 0
-478 -519 0
-478 -520 0
-478 -521 0
-478 -522 0
-478 -523 0
-478 -524 0
-478 -525 0
-478 -526 0
-478 -527 0
-478 -528 0
-478 -529 0
-478 -530 0
-478 -531 0
-478 -532 0
-478 -533 0
-478 -534 0
-478 -535 0
-478 -536 0
-478 -537 0
-478 -538 0
-478 -539 0
-479 -480 0
-479 -481 0
-479 -482 0
-479 -483 0
-479 -484 0
-479 -485 0
-479 -486 0
-479 -487 0
-479 -488 0
-479 -489 0
-479 -490 0
-479 -491 0
-479 -492 0
-479 -493 0
-479 -494 0
-479 -495 0
-479 -496 0
-479 -497 0
-479 -498 0
-479 -499 0
-479 -500 0
-479 -501 0
-479 -502 0
-479 -503 0
-479 -504 0
-479 -505 0
-479 -506 0
-479 -507 0
-479 -508 0
-479 -509 0
-479 -510 0
-479 -511 0
-479 -512 0
-479 -513 0
-479 -514 0
-479 -515 0
-479 -516 0
-479 -517 0
-479 -518 0
-479 -519 0
-479 -520 0
-479 -521 0
-479 -522 0
-479 -523 0
-479 -524 0
-479 -525 0
-479 -526 0
-479 -527 0
-479 -528 0
-479 -529 0
-479 -530 0
-479 -531 0
-479 -532 0
-479 -533 0
-479 -534 0
-479 -535 0
-479 -536 0
-479 -537 0
-479 -538 0
-479 -539 0
-480 -481 0
-480 -482 0
-480 -483 0
-480 -484 0
-480 -485 0
-480 -486 0
-480 -487 0
-480 -488 0
-480 -489 0
-480 -490 0
-480 -491 0
-480 -492 0
-480 -493 0
-480 -494 0
-480 -495 0
-480 -496 0
-480 -497 0
-480 -498 0
-480 -499 0
-480 -500 0
-480 -501 0
-480 -502 0
-480 -503 0
-480 -504 0
-480 -505 0
-480 -506 0
-480 -507 0
-480 -508 0
-480 -509 0
-480 -510 0
-480 -511 0
-480 -512 0
-480 -513 0
-480 -514 0
-480 -515 0
-480 -516 0
-480 -517 0
-480 -518 0
-480 -519 0
-480 -520 0
-480 -521 0
-480 -522 0
-480 -523 0
-480 -524 0
-480 -525 0
-480 -526 0
-480 -527 0
-480 -528 0
-480 -529 0
-480 -530 0
-480 -531 0
-480 -532 0
-480 -533 0
-480 -534 0
-480 -535 0
-480 -536 0
-480 -537 0
-480 -538 0
-480 -539 0
-481 -482 0
-481 -483 0
-481 -484 0
-481 -485 0
-481 -486 0
-481 -487 0
-481 -488 0
-481 -489 0
-481 -490 0
-481 -491 0
-481 -492 0
-481 -493 0
-481 -494 0
-481 -495 0
-481 -496 0
-481 -497 0
-481 -498 0
-481 -499 0
-481 -500 0
-481 -501 0
-481 -502 0
-481 -503 0
-481 -504 0
-481 -505 0
-481 -506 0
-481 -507 0
-481 -508 0
-481 -509 0
-481 -510 0
-481 -511 0
-481 -512 0
-481 -513 0
-481 -514 0
-481 -515 0
-481 -516 0
-481 -517 0
-481 -518 0
-481 -519 0
-481 -520 0
-481 -521 0
-481 -522 0
-481 -523 0
-481 -524 0
-481 -525 0
-481 -526 0
-481 -527 0
-481 -528 0
-481 -529 0
-481 -530 0
-481 -531 0
-481 -532 0
-481 -533 0
-481 -534 0
-481 -535 0
-481 -536 0
-481 -537 0
-481 -538 0
-481 -539 0
-482 -483 0
-482 -484 0
-482 -485 0
-482 -486 0
-482 -487 0
-482 -488 0
-482 -489 0
-482 -490 0
-482 -491 0
-482 -492 0
-482 -493 0
-482 -494 0
-482 -495 0
-482 -496 0
-482 -497 0
-482 -498 0
-482 -499 0
-482 -500 0
-482 -501 0
-482 -502 0
-482 -503 0
-482 -504 0
-482 -505 0
-482 -506 0
-482 -507 0
-482 -508 0
-482 -509 0
-482 -510 0
-482 -511 0
-482 -512 0
-482 -513 0
-482 -514 0
-482 -515 0
-482 -516 0
-482 -517 0
-482 -518 0
-482 -519 0
-482 -520 0
-482 -521 0
-482 -522 0
-482 -523 0
-482 -524 0
-482 -525 0
-482 -526 0
-482 -527 0
-482 -528 0
-482 -529 0
-482 -530 0
-482 -531 0
-482 -532 0
-482 -533 0
-482 -534 0
-482 -535 0
-482 -536 0
-482 -537 0
-482 -538 0
-482 -539 0
-483 -484 0
-483 -485 0
-483 -486 0
-483 -487 0
-483 -488 0
-483 -489 0
-483 -490 0
-483 -491 0
-483 -492 0
-483 -493 0
-483 -494 0
-483 -495 0
-483 -496 0
-483 -497 0
-483 -498 0
-483 -499 0
-483 -500 0
-483 -501 0
-483 -502 0
-483 -503 0
-483 -504 0
-483 -505 0
-483 -506 0
-483 -507 0
-483 -508 0
-483 -509 0
-483 -510 0
-483 -511 0
-483 -512 0
-483 -513 0
-483 -514 0
-483 -515 0
-483 -516 0
-483 -517 0
-483 -518 0
-483 -519 0
-483 -520 0
-483 -521 0
-483 -522 0
-483 -523 0
-483 -524 0
-483 -525 0
-483 -526 0
-483 -527 0
-483 -528 0
-483 -529 0
-483 -530 0
-483 -531 0
-483 -532 0
-483 -533 0
-483 -534 0
-483 -535 0
-483 -536 0
-483 -537 0
-483 -538 0
-483 -539 0
-484 -485 0
-484 -486 0
-484 -487 0
-484 -488 0
-484 -489 0
-484 -490 0
-484 -491 0
-484 -492 0
-484 -493 0
-484 -494 0
-484 -495 0
-484 -496 0
-484 -497 0
-484 -498 0
-484 -499 0
-484 -500 0
-484 -501 0
-484 -502 0
-484 -503 0
-484 -504 0
-484 -505 0
-484 -506 0
-484 -507 0
-484 -508 0
-484 -509 0
-484 -510 0
-484 -511 0
-484 -512 0
-484 -513 0
-484 -514 0
-484 -515 0
-484 -516 0
-484 -517 0
-484 -518 0
-484 -519 0
-484 -520 0
-484 -521 0
-484 -522 0
-484 -523 0
-484 -524 0
-484 -525 0
-484 -526 0
-484 -527 0
-484 -528 0
-484 -529 0
-484 -530 0
-484 -531 0
-484 -532 0
-484 -533 0
-484 -534 0
-484 -535 0
-484 -536 0
-484 -537 0
-484 -538 0
-484 -539 0
-485 -486 0
-485 -487 0
-485 -488 0
-485 -489 0
-485 -490 0
-485 -491 0
-485 -492 0
-485 -493 0
-485 -494 0
-485 -495 0
-485 -496 0
-485 -497 0
-485 -498 0
-485 -499 0
-485 -500 0
-485 -501 0
-485 -502 0
-485 -503 0
-485 -504 0
-485 -505 0
-485 -506 0
-485 -507 0
-485 -508 0
-485 -509 0
-485 -510 0
-485 -511 0
-485 -512 0
-485 -513 0
-485 -514 0
-485 -515 0
-485 -516 0
-485 -517 0
-485 -518 0
-485 -519 0
-485 -520 0
-485 -521 0
-485 -522 0
-485 -523 0
-485 -524 0
-485 -525 0
-485 -526 0
-485 -527 0
-485 -528 0
-485 -529 0
-485 -530 0
-485 -531 0
-485 -532 0
-485 -533 0
-485 -534 0
-485 -535 0
-485 -536 0
-485 -537 0
-485 -538 0
-485 -539 0
-486 -487 0
-486 -488 0
-486 -489 0
-486 -490 0
-486 -491 0
-486 -492 0
-486 -493 0
-486 -494 0
-486 -495 0
-486 -496 0
-486 -497 0
-486 -498 0
-486 -499 0
-486 -500 0
-486 -501 0
-486 -502 0
-486 -503 0
-486 -504 0
-486 -505 0
-486 -506 0
-486 -507 0
-486 -508 0
-486 -509 0
-486 -510 0
-486 -511 0
-486 -512 0
-486 -513 0
-486 -514 0
-486 -515 0
-486 -516 0
-486 -517 0
-486 -518 0
-486 -519 0
-486 -520 0
-486 -521 0
-486 -522 0
-486 -523 0
-486 -524 0
-486 -525 0
-486 -526 0
-486 -527 0
-486 -528 0
-486 -529 0
-486 -530 0
-486 -531 0
-486 -532 0
-486 -533 0
-486 -534 0
-486 -535 0
-486 -536 0
-486 -537 0
-486 -538 0
-486 -539 0
-487 -488 0
-487 -489 0
-487 -490 0
-487 -491 0
-487 -492 0
-487 -493 0
-487 -494 0
-487 -495 0
-487 -496 0
-487 -497 0
-487 -498 0
-487 -499 0
-487 -500 0
-487 -501 0
-487 -502 0
-487 -503 0
-487 -504 0
-487 -505 0
-487 -506 0
-487 -507 0
-487 -508 0
-487 -509 0
-487 -510 0
-487 -511 0
-487 -512 0
-487 -513 0
-487 -514 0
-487 -515 0
-487 -516 0
-487 -517 0
-487 -518 0
-487 -519 0
-487 -520 0
-487 -521 0
-487 -522 0
-487 -523 0
-487 -524 0
-487 -525 0
-487 -526 0
-487 -527 0
-487 -528 0
-487 -529 0
-487 -530 0
-487 -531 0
-487 -532 0
-487 -533 0
-487 -534 0
-487 -535 0
-487 -536 0
-487 -537 0
-487 -538 0
-487 -539 0
-488 -489 0
-488 -490 0
-488 -491 0
-488 -492 0
-488 -493 0
-488 -494 0
-488 -495 0
-488 -496 0
-488 -497 0
-488 -498 0
-488 -499 0
-488 -500 0
-488 -501 0
-488 -502 0
-488 -503 0
-488 -504 0
-488 -505 0
-488 -506 0
-488 -507 0
-488 -508 0
-488 -509 0
-488 -510 0
-488 -511 0
-488 -512 0
-488 -513 0
-488 -514 0
-488 -515 0
-488 -516 0
-488 -517 0
-488 -518 0
-488 -519 0
-488 -520 0
-488 -521 0
-488 -522 0
-488 -523 0
-488 -524 0
-488 -525 0
-488 -526 0
-488 -527 0
-488 -528 0
-488 -529 0
-488 -530 0
-488 -531 0
-488 -532 0
-488 -533 0
-488 -534 0
-488 -535 0
-488 -536 0
-488 -537 0
-488 -538 0
-488 -539 0
-489 -490 0
-489 -491 0
-489 -492 0
-489 -493 0
-489 -494 0
-489 -495 0
-489 -496 0
-489 -497 0
-489 -498 0
-489 -499 0
-489 -500 0
-489 -501 0
-489 -502 0
-489 -503 0
-489 -504 0
-489 -505 0
-489 -506 0
-489 -507 0
-489 -508 0
-489 -509 0
-489 -510 0
-489 -511 0
-489 -512 0
-489 -513 0
-489 -514 0
-489 -515 0
-489 -516 0
-489 -517 0
-489 -518 0
-489 -519 0
-489 -520 0
-489 -521 0
-489 -522 0
-489 -523 0
-489 -524 0
-489 -525 0
-489 -526 0
-489 -527 0
-489 -528 0
-489 -529 0
-489 -530 0
-489 -531 0
-489 -532 0
-489 -533 0
-489 -534 0
-489 -535 0
-489 -536 0
-489 -537 0
-489 -538 0
-489 -539 0
-490 -491 0
-490 -492 0
-490 -493 0
-490 -494 0
-490 -495 0
-490 -496 0
-490 -497 0
-490 -498 0
-490 -499 0
-490 -500 0
-490 -501 0
-490 -502 0
-490 -503 0
-490 -504 0
-490 -505 0
-490 -506 0
-490 -507 0
-490 -508 0
-490 -509 0
-490 -510 0
-490 -511 0
-490 -512 0
-490 -513 0
-490 -514 0
-490 -515 0
-490 -516 0
-490 -517 0
-490 -518 0
-490 -519 0
-490 -520 0
-490 -521 0
-490 -522 0
-490 -523 0
-490 -524 0
-490 -525 0
-490 -526 0
-490 -527 0
-490 -528 0
-490 -529 0
-490 -530 0
-490 -531 0
-490 -532 0
-490 -533 0
-490 -534 0
-490 -535 0
-490 -536 0
-490 -537 0
-490 -538 0
-490 -539 0
-491 -492 0
-491 -493 0
-491 -494 0
-491 -495 0
-491 -496 0
-491 -497 0
-491 -498 0
-491 -499 0
-491 -500 0
-491 -501 0
-491 -502 0
-491 -503 0
-491 -504 0
-491 -505 0
-491 -506 0
-491 -507 0
-491 -508 0
-491 -509 0
-491 -510 0
-491 -511 0
-491 -512 0
-491 -513 0
-491 -514 0
-491 -515 0
-491 -516 0
-491 -517 0
-491 -518 0
-491 -519 0
-491 -520 0
-491 -521 0
-491 -522 0
-491 -523 0
-491 -524 0
-491 -525 0
-491 -526 0
-491 -527 0
-491 -528 0
-491 -529 0
-491 -530 0
-491 -531 0
-491 -532 0
-491 -533 0
-491 -534 0
-491 -535 0
-491 -536 0
-491 -537 0
-491 -538 0
-491 -539 0
-492 -493 0
-492 -494 0
-492 -495 0
-492 -496 0
-492 -497 0
-492 -498 0
-492 -499 0
-492 -500 0
-492 -501 0
-492 -502 0
-492 -503 0
-492 -504 0
-492 -505 0
-492 -506 0
-492 -507 0
-492 -508 0
-492 -509 0
-492 -510 0
-492 -511 0
-492 -512 0
-492 -513 0
-492 -514 0
-492 -515 0
-492 -516 0
-492 -517 0
-492 -518 0
-492 -519 0
-492 -520 0
-492 -521 0
-492 -522 0
-492 -523 0
-492 -524 0
-492 -525 0
-492 -526 0
-492 -527 0
-492 -528 0
-492 -529 0
-492 -530 0
-492 -531 0
-492 -532 0
-492 -533 0
-492 -534 0
-492 -535 0
-492 -536 0
-492 -537 0
-492 -538 0
-492 -539 0
-493 -494 0
-493 -495 0
-493 -496 0
-493 -497 0
-493 -498 0
-493 -499 0
-493 -500 0
-493 -501 0
-493 -502 0
-493 -503 0
-493 -504 0
-493 -505 0
-493 -506 0
-493 -507 0
-493 -508 0
-493 -509 0
-493 -510 0
-493 -511 0
-493 -512 0
-493 -513 0
-493 -514 0
-493 -515 0
-493 -516 0
-493 -517 0
-493 -518 0
-493 -519 0
-493 -520 0
-493 -521 0
-493 -522 0
-493 -523 0
-493 -524 0
-493 -525 0
-493 -526 0
-493 -527 0
-493 -528 0
-493 -529 0
-493 -530 0
-493 -531 0
-493 -532 0
-493 -533 0
-493 -534 0
-493 -535 0
-493 -536 0
-493 -537 0
-493 -538 0
-493 -539 0
-494 -495 0
-494 -496 0
-494 -497 0
-494 -498 0
-494 -499 0
-494 -500 0
-494 -501 0
-494 -502 0
-494 -503 0
-494 -504 0
-494 -505 0
-494 -506 0
-494 -507 0
-494 -508 0
-494 -509 0
-494 -510 0
-494 -511 0
-494 -512 0
-494 -513 0
-494 -514 0
-494 -515 0
-494 -516 0
-494 -517 0
-494 -518 0
-494 -519 0
-494 -520 0
-494 -521 0
-494 -522 0
-494 -523 0
-494 -524 0
-494 -525 0
-494 -526 0
-494 -527 0
-494 -528 0
-494 -529 0
-494 -530 0
-494 -531 0
-494 -532 0
-494 -533 0
-494 -534 0
-494 -535 0
-494 -536 0
-494 -537 0
-494 -538 0
-494 -539 0
-495 -496 0
-495 -497 0
-495 -498 0
-495 -499 0
-495 -500 0
-495 -501 0
-495 -502 0
-495 -503 0
-495 -504 0
-495 -505 0
-495 -506 0
-495 -507 0
-495 -508 0
-495 -509 0
-495 -510 0
-495 -511 0
-495 -512 0
-495 -513 0
-495 -514 0
-495 -515 0
-495 -516 0
-495 -517 0
-495 -518 0
-495 -519 0
-495 -520 0
-495 -521 0
-495 -522 0
-495 -523 0
-495 -524 0
-495 -525 0
-495 -526 0
-495 -527 0
-495 -528 0
-495 -529 0
-495 -530 0
-495 -531 0
-495 -532 0
-495 -533 0
-495 -534 0
-495 -535 0
-495 -536 0
-495 -537 0
-495 -538 0
-495 -539 0
-496 -497 0
-496 -498 0
-496 -499 0
-496 -500 0
-496 -501 0
-496 -502 0
-496 -503 0
-496 -504 0
-496 -505 0
-496 -506 0
-496 -507 0
-496 -508 0
-496 -509 0
-496 -510 0
-496 -511 0
-496 -512 0
-496 -513 0
-496 -514 0
-496 -515 0
-496 -516 0
-496 -517 0
-496 -518 0
-496 -519 0
-496 -520 0
-496 -521 0
-496 -522 0
-496 -523 0
-496 -524 0
-496 -525 0
-496 -526 0
-496 -527 0
-496 -528 0
-496 -529 0
-496 -530 0
-496 -531 0
-496 -532 0
-496 -533 0
-496 -534 0
-496 -535 0
-496 -536 0
-496 -537 0
-496 -538 0
-496 -539 0
-497 -498 0
-497 -499 0
-497 -500 0
-497 -501 0
-497 -502 0
-497 -503 0
-497 -504 0
-497 -505 0
-497 -506 0
-497 -507 0
-497 -508 0
-497 -509 0
-497 -510 0
-497 -511 0
-497 -512 0
-497 -513 0
-497 -514 0
-497 -515 0
-497 -516 0
-497 -517 0
-497 -518 0
-497 -519 0
-497 -520 0
-497 -521 0
-497 -522 0
-497 -523 0
-497 -524 0
-497 -525 0
-497 -526 0
-497 -527 0
-497 -528 0
-497 -529 0
-497 -530 0
-497 -531 0
-497 -532 0
-497 -533 0
-497 -534 0
-497 -535 0
-497 -536 0
-497 -537 0
-497 -538 0
-497 -539 0
-498 -499 0
-498 -500 0
-498 -501 0
-498 -502 0
-498 -503 0
-498 -504 0
-498 -505 0
-498 -506 0
-498 -507 0
-498 -508 0
-498 -509 0
-498 -510 0
-498 -511 0
-498 -512 0
-498 -513 0
-498 -514 0
-498 -515 0
-498 -516 0
-498 -517 0
-498 -518 0
-498 -519 0
-498 -520 0
-498 -521 0
-498 -522 0
-498 -523 0
-498 -524 0
-498 -525 0
-498 -526 0
-498 -527 0
-498 -528 0
-498 -529 0
-498 -530 0
-498 -531 0
-498 -532 0
-498 -533 0
-498 -534 0
-498 -535 0
-498 -536 0
-498 -537 0
-498 -538 0
-498 -539 0
-499 -500 0
-499 -501 0
-499 -502 0
-499 -503 0
-499 -504 0
-499 -505 0
-499 -506 0
-499 -507 0
-499 -508 0
-499 -509 0
-499 -510 0
-499 -511 0
-499 -512 0
-499 -513 0
-499 -514 0
-499 -515 0
-499 -516 0
-499 -517 0
-499 -518 0
-499 -519 0
-499 -520 0
-499 -521 0
-499 -522 0
-499 -523 0
-499 -524 0
-499 -525 0
-499 -526 0
-499 -527 0
-499 -528 0
-499 -529 0
-499 -530 0
-499 -531 0
-499 -532 0
-499 -533 0
-499 -534 0
-499 -535 0
-499 -536 0
-499 -537 0
-499 -538 0
-499 -539 0
-500 -501 0
-500 -502 0
-500 -503 0
-500 -504 0
-500 -505 0
-500 -506 0
-500 -507 0
-500 -508 0
-500 -509 0
-500 -510 0
-500 -511 0
-500 -512 0
-500 -513 0
-500 -514 0
-500 -515 0
-500 -516 0
-500 -517 0
-500 -518 0
-500 -519 0
-500 -520 0
-500 -521 0
-500 -522 0
-500 -523 0
-500 -524 0
-500 -525 0
-500 -526 0
-500 -527 0
-500 -528 0
-500 -529 0
-500 -530 0
-500 -531 0
-500 -532 0
-500 -533 0
-500 -534 0
-500 -535 0
-500 -536 0
-500 -537 0
-500 -538 0
-500 -539 0
-501 -502 0
-501 -503 0
-501 -504 0
-501 -505 0
-501 -506 0
-501 -507 0
-501 -508 0
-501 -509 0
-501 -510 0
-501 -511 0
-501 -512 0
-501 -513 0
-501 -514 0
-501 -515 0
-501 -516 0
-501 -517 0
-501 -518 0
-501 -519 0
-501 -520 0
-501 -521 0
-501 -522 0
-501 -523 0
-501 -524 0
-501 -525 0
-501 -526 0
-501 -527 0
-501 -528 0
-501 -529 0
-501 -530 0
-501 -531 0
-501 -532 0
-501 -533 0
-501 -534 0
-501 -535 0
-501 -536 0
-501 -537 0
-501 -538 0
-501 -539 0
-502 -503 0
-502 -504 0
-502 -505 0
-502 -506 0
-502 -507 0
-502 -508 0
-502 -509 0
-502 -510 0
-502 -511 0
-502 -512 0
-502 -513 0
-502 -514 0
-502 -515 0
-502 -516 0
-502 -517 0
-502 -518 0
-502 -519 0
-502 -520 0
-502 -521 0
-502 -522 0
-502 -523 0
-502 -524 0
-502 -525 0
-502 -526 0
-502 -527 0
-502 -528 0
-502 -529 0
-502 -530 0
-502 -531 0
-502 -532 0
-502 -533 0
-502 -534 0
-502 -535 0
-502 -536 0
-502 -537 0
-502 -538 0
-502 -539 0
-503 -504 0
-503 -505 0
-503 -506 0
-503 -507 0
-503 -508 0
-503 -509 0
-503 -510 0
-503 -511 0
-503 -512 0
-503 -513 0
-503 -514 0
-503 -515 0
-503 -516 0
-503 -517 0
-503 -518 0
-503 -519 0
-503 -520 0
-503 -521 0
-503 -522 0
-503 -523 0
-503 -524 0
-503 -525 0
-503 -526 0
-503 -527 0
-503 -528 0
-503 -529 0
-503 -530 0
-503 -531 0
-503 -532 0
-503 -533 0
-503 -534 0
-503 -535 0
-503 -536 0
-503 -537 0
-503 -538 0
-503 -539 0
-504 -505 0
-504 -506 0
-504 -507 0
-504 -508 0
-504 -509 0
-504 -510 0
-504 -511 0
-504 -512 0
-504 -513 0
-504 -514 0
-504 -515 0
-504 -516 0
-504 -517 0
-504 -518 0
-504 -519 0
-504 -520 0
-504 -521 0
-504 -522 0
-504 -523 0
-504 -524 0
-504 -525 0
-504 -526 0
-504 -527 0
-504 -528 0
-504 -529 0
-504 -530 0
-504 -531 0
-504 -532 0
-504 -533 0
-504 -534 0
-504 -535 0
-504 -536 0
-504 -537 0
-504 -538 0
-504 -539 0
-505 -506 0
-505 -507 0
-505 -508 0
-505 -509 0
-505 -510 0
-505 -511 0
-505 -512 0
-505 -513 0
-505 -514 0
-505 -515 0
-505 -516 0
-505 -517 0
-505 -518 0
-505 -519 0
-505 -520 0
-505 -521 0
-505 -522 0
-505 -523 0
-505 -524 0
-505 -525 0
-505 -526 0
-505 -527 0
-505 -528 0
-505 -529 0
-505 -530 0
-505 -531 0
-505 -532 0
-505 -533 0
-505 -534 0
-505 -535 0
-505 -536 0
-505 -537 0
-505 -538 0
-505 -539 0
-506 -507 0
-506 -508 0
-506 -509 0
-506 -510 0
-506 -511 0
-506 -512 0
-506 -513 0
-506 -514 0
-506 -515 0
-506 -516 0
-506 -517 0
-506 -518 0
-506 -519 0
-506 -520 0
-506 -521 0
-506 -522 0
-506 -523 0
-506 -524 0
-506 -525 0
-506 -526 0
-506 -527 0
-506 -528 0
-506 -529 0
-506 -530 0
-506 -531 0
-506 -532 0
-506 -533 0
-506 -534 0
-506 -535 0
-506 -536 0
-506 -537 0
-506 -538 0
-506 -539 0
-507 -508 0
-507 -509 0
-507 -510 0
-507 -511 0
-507 -512 0
-507 -513 0
-507 -514 0
-507 -515 0
-507 -516 0
-507 -517 0
-507 -518 0
-507 -519 0
-507 -520 0
-507 -521 0
-507 -522 0
-507 -523 0
-507 -524 0
-507 -525 0
-507 -526 0
-507 -527 0
-507 -528 0
-507 -529 0
-507 -530 0
-507 -531 0
-507 -532 0
-507 -533 0
-507 -534 0
-507 -535 0
-507 -536 0
-507 -537 0
-507 -538 0
-507 -539 0
-508 -509 0
-508 -510 0
-508 -511 0
-508 -512 0
-508 -513 0
-508 -514 0
-508 -515 0
-508 -516 0
-508 -517 0
-508 -518 0
-508 -519 0
-508 -520 0
-508 -521 0
-508 -522 0
-508 -523 0
-508 -524 0
-508 -525 0
-508 -526 0
-508 -527 0
-508 -528 0
-508 -529 0
-508 -530 0
-508 -531 0
-508 -532 0
-508 -533 0
-508 -534 0
-508 -535 0
-508 -536 0
-508 -537 0
-508 -538 0
-508 -539 0
-509 -510 0
-509 -511 0
-509 -512 0
-509 -513 0
-509 -514 0
-509 -515 0
-509 -516 0
-509 -517 0
-509 -518 0
-509 -519 0
-509 -520 0
-509 -521 0
-509 -522 0
-509 -523 0
-509 -524 0
-509 -525 0
-509 -526 0
-509 -527 0
-509 -528 0
-509 -529 0
-509 -530 0
-509 -531 0
-509 -532 0
-509 -533 0
-509 -534 0
-509 -535 0
-509 -536 0
-509 -537 0
-509 -538 0
-509 -539 0
-510 -511 0
-510 -512 0
-510 -513 0
-510 -514 0
-510 -515 0
-510 -516 0
-510 -517 0
-510 -518 0
-510 -519 0
-510 -520 0
-510 -521 0
-510 -522 0
-510 -523 0
-510 -524 0
-510 -525 0
-510 -526 0
-510 -527 0
-510 -528 0
-510 -529 0
-510 -530 0
-510 -531 0
-510 -532 0
-510 -533 0
-510 -534 0
-510 -535 0
-510 -536 0
-510 -537 0
-510 -538 0
-510 -539 0
-511 -512 0
-511 -513 0
-511 -514 0
-511 -515 0
-511 -516 0
-511 -517 0
-511 -518 0
-511 -519 0
-511 -520 0
-511 -521 0
-511 -522 0
-511 -523 0
-511 -524 0
-511 -525 0
-511 -526 0
-511 -527 0
-511 -528 0
-511 -529 0
-511 -530 0
-511 -531 0
-511 -532 0
-511 -533 0
-511 -534 0
-511 -535 0
-511 -536 0
-511 -537 0
-511 -538 0
-511 -539 0
-512 -513 0
-512 -514 0
-512 -515 0
-512 -516 0
-512 -517 0
-512 -518 0
-512 -519 0
-512 -520 0
-512 -521 0
-512 -522 0
-512 -523 0
-512 -524 0
-512 -525 0
-512 -526 0
-512 -527 0
-512 -528 0
-512 -529 0
-512 -530 0
-512 -531 0
-512 -532 0
-512 -533 0
-512 -534 0
-512 -535 0
-512 -536 0
-512 -537 0
-512 -538 0
-512 -539 0
-513 -514 0
-513 -515 0
-513 -516 0
-513 -517 0
-513 -518 0
-513 -519 0
-513 -520 0
-513 -521 0
-513 -522 0
-513 -523 0
-513 -524 0
-513 -525 0
-513 -526 0
-513 -527 0
-513 -528 0
-513 -529 0
-513 -530 0
-513 -531 0
-513 -532 0
-513 -533 0
-513 -534 0
-513 -535 0
-513 -536 0
-513 -537 0
-513 -538 0
-513 -539 0
-514 -515 0
-514 -516 0
-514 -517 0
-514 -518 0
-514 -519 0
-514 -520 0
-514 -521 0
-514 -522 0
-514 -523 0
-514 -524 0
-514 -525 0
-514 -526 0
-514 -527 0
-514 -528 0
-514 -529 0
-514 -530 0
-514 -531 0
-514 -532 0
-514 -533 0
-514 -534 0
-514 -535 0
-514 -536 0
-514 -537 0
-514 -538 0
-514 -539 0
-515 -516 0
-515 -517 0
-515 -518 0
-515 -519 0
-515 -520 0
-515 -521 0
-515 -522 0
-515 -523 0
-515 -524 0
-515 -525 0
-515 -526 0
-515 -527 0
-515 -528 0
-515 -529 0
-515 -530 0
-515 -531 0
-515 -532 0
-515 -533 0
-515 -534 0
-515 -535 0
-515 -536 0
-515 -537 0
-515 -538 0
-515 -539 0
-516 -517 0
-516 -518 0
-516 -519 0
-516 -520 0
-516 -521 0
-516 -522 0
-516 -523 0
-516 -524 0
-516 -525 0
-516 -526 0
-516 -527 0
-516 -528 0
-516 -529 0
-516 -530 0
-516 -531 0
-516 -532 0
-516 -533 0
-516 -534 0
-516 -535 0
-516 -536 0
-516 -537 0
-516 -538 0
-516 -539 0
-517 -518 0
-517 -519 0
-517 -520 0
-517 -521 0
-517 -522 0
-517 -523 0
-517 -524 0
-517 -525 0
-517 -526 0
-517 -527 0
-517 -528 0
-517 -529 0
-517 -530 0
-517 -531 0
-517 -532 0
-517 -533 0
-517 -534 0
-517 -535 0
-517 -536 0
-517 -537 0
-517 -538 0
-517 -539 0
-518 -519 0
-518 -520 0
-518 -521 0
-518 -522 0
-518 -523 0
-518 -524 0
-518 -525 0
-518 -526 0
-518 -527 0
-518 -528 0
-518 -529 0
-518 -530 0
-518 -531 0
-518 -532 0
-518 -533 0
-518 -534 0
-518 -535 0
-518 -536 0
-518 -537 0
-518 -538 0
-518 -539 0
-519 -520 0
-519 -521 0
-519 -522 0
-519 -523 0
-519 -524 0
-519 -525 0
-519 -526 0
-519 -527 0
-519 -528 0
-519 -529 0
-519 -530 0
-519 -531 0
-519 -532 0
-519 -533 0
-519 -534 0
-519 -535 0
-519 -536 0
-519 -537 0
-519 -538 0
-519 -539 0
-520 -521 0
-520 -522 0
-520 -523 0
-520 -524 0
-520 -525 0
-520 -526 0
-520 -527 0
-520 -528 0
-520 -529 0
-520 -530 0
-520 -531 0
-520 -532 0
-520 -533 0
-520 -534 0
-520 -535 0
-520 -536 0
-520 -537 0
-520 -538 0
-520 -539 0
-521 -522 0
-521 -523 0
-521 -524 0
-521 -525 0
-521 -526 0
-521 -527 0
-521 -528 0
-521 -529 0
-521 -530 0
-521 -531 0
-521 -532 0
-521 -533 0
-521 -534 0
-521 -535 0
-521 -536 0
-521 -537 0
-521 -538 0
-521 -539 0
-522 -523 0
-522 -524 0
-522 -525 0
-522 -526 0
-522 -527 0
-522 -528 0
-522 -529 0
-522 -530 0
-522 -531 0
-522 -532 0
-522 -533 0
-522 -534 0
-522 -535 0
-522 -536 0
-522 -537 0
-522 -538 0
-522 -539 0
-523 -524 0
-523 -525 0
-523 -526 0
-523 -527 0
-523 -528 0
-523 -529 0
-523 -530 0
-523 -531 0
-523 -532 0
-523 -533 0
-523 -534 0
-523 -535 0
-523 -536 0
-523 -537 0
-523 -538 0
-523 -539 0
-524 -525 0
-524 -526 0
-524 -527 0
-524 -528 0
-524 -529 0
-524 -530 0
-524 -531 0
-524 -532 0
-524 -533 0
-524 -534 0
-524 -535 0
-524 -536 0
-524 -537 0
-524 -538 0
-524 -539 0
-525 -526 0
-525 -527 0
-525 -528 0
-525 -529 0
-525 -530 0
-525 -531 0
-525 -532 0
-525 -533 0
-525 -534 0
-525 -535 0
-525 -536 0
-525 -537 0
-525 -538 0
-525 -539 0
-526 -527 0
-526 -528 0
-526 -529 0
-526 -530 0
-526 -531 0
-526 -532 0
-526 -533 0
-526 -534 0
-526 -535 0
-526 -536 0
-526 -537 0
-526 -538 0
-526 -539 0
-527 -528 0
-527 -529 0
-527 -530 0
-527 -531 0
-527 -532 0
-527 -533 0
-527 -534 0
-527 -535 0
-527 -536 0
-527 -537 0
-527 -538 0
-527 -539 0
-528 -529 0
-528 -530 0
-528 -531 0
-528 -532 0
-528 -533 0
-528 -534 0
-528 -535 0
-528 -536 0
-528 -537 0
-528 -538 0
-528 -539 0
-529 -530 0
-529 -531 0
-529 -532 0
-529 -533 0
-529 -534 0
-529 -535 0
-529 -536 0
-529 -537 0
-529 -538 0
-529 -539 0
-530 -531 0
-530 -532 0
-530 -533 0
-530 -534 0
-530 -535 0
-530 -536 0
-530 -537 0
-530 -538 0
-530 -539 0
-531 -532 0
-531 -533 0
-531 -534 0
-531 -535 0
-531 -536 0
-531 -537 0
-531 -538 0
-531 -539 0
-532 -533 0
-532 -534 0
-532 -535 0
-532 -536 0
-532 -537 0
-532 -538 0
-532 -539 0
-533 -534 0
-533 -535 0
-533 -536 0
-533 -537 0
-533 -538 0
-533 -539 0
-534 -535 0
-534 -536 0
-534 -537 0
-534 -538 0
-534 -539 0
-535 -536 0
-535 -537 0
-535 -538 0
-535 -539 0
-536 -537 0
-536 -538 0
-536 -539 0
-537 -538 0
-537 -539 0
-538 -539 0
540 541 542 543 544 545 546 547 548 549 550 551 552 553 554 555 556 557 558 559 560 561 562 563 564 565 566 567 568 569 570 571 572 573 574 575 576 577 578 579 580 581 582 583 584 585 586 587 588 589 590 591 592 593 594 595 596 597 598 599 600 601 602 603 604 605 606 607 608 609 610 611 612 613 614 615 616 617 618 619 620 621 622 623 0
-540 -541 0
-540 -542 0
-540 -543 0
-540 -544 0
-540 -545 0
-540 -546 0
-540 -547 0
-540 -548 0
-540 -549 0
-540 -550 0
-540 -551 0
-540 -552 0
-540 -553 0
-540 -554 0
-540 -555 0
-540 -556 0
-540 -557 0
-540 -558 0
-540 -559 0
-540 -560 0
-540 -561 0
-540 -562 0
-540 -563 0
-540 -564 0
-540 -565 0
-540 -566 0
-540 -567 0
-540 -568 0
-540 -569 0
-540 -570 0
-540 -571 0
-540 -572 0
-540 -573 0
-540 -574 0
-540 -575 0
-540 -576 0
-540 -577 0
-540 -578 0
-540 -579 0
-540 -580 0
-540 -581 0
-540 -582 0
-540 -583 0
-540 -584 0
-540 -585 0
-540 -586 0
-540 -587 0
-540 -588 0
-540 -589 0
-540 -590 0
-540 -591 0
-540 -592 0
-540 -593 0
-540 -594 0
-540 -595 0
-540 -596 0
-540 -597 0
-540 -598 0
-540 -599 0
-540 -600 0
-540 -601 0
-540 -602 0
-540 -603 0
-540 -604 0
-540 -605 0
-540 -606 0
-540 -607 0
-540 -608 0
-540 -609 0
-540 -610 0
-540 -611 0
-540 -612 0
-540 -613 0
-540 -614 0
-540 -615 0
-540 -616 0
-540 -617 0
-540 -618 0
-540 -619 0
-540 -620 0
-540 -621 0
-540 -622 0
-540 -623 0
-541 -542 0
-541 -543 0
-541 -544 0
-541 -545 0
-541 -546 0
-541 -547 0
-541 -548 0
-541 -549 0
-541 -550 0
-541 -551 0
-541 -552 0
-541 -553 0
-541 -554 0
-541 -555 0
-541 -556 0
-541 -557 0
-541 -558 0
-541 -559 0
-541 -560 0
-541 -561 0
-541 -562 0
-541 -563 0
-541 -564 0
-541 -565 0
-541 -566 0
-541 -567 0
-541 -568 0
-541 -569 0
-541 -570 0
-541 -571 0
-541 -572 0
-541 -573 0
-541 -574 0
-541 -575 0
-541 -576 0
-541 -577 0
-541 -578 0
-541 -579 0
-541 -580 0
-541 -581 0
-541 -582 0
-541 -583 0
-541 -584 0
-541 -585 0
-541 -586 0
-541 -587 0
-541 -588 0
-541 -589 0
-541 -590 0
-541 -591 0
-541 -592 0
-541 -593 0
-541 -594 0
-541 -595 0
-541 -596 0
-541 -597 0
-541 -598 0
-541 -599 0
-541 -600 0
-541 -601 0
-541 -602 0
-541 -603 0
-541 -604 0
-541 -605 0
-541 -606 0
-541 -607 0
-541 -608 0
-541 -609 0
-541 -610 0
-541 -611 0
-541 -612 0
-541 -613 0
-541 -614 0
-541 -615 0
-541 -616 0
-541 -617 0
-541 -618 0
-541 -619 0
-541 -620 0
-541 -621 0
-541 -622 0
-541 -623 0
-542 -543 0
-542 -544 0
-542 -545 0
-542 -546 0
-542 -547 0
-542 -548 0
-542 -549 0
-542 -550 0
-542 -551 0
-542 -552 0
-542 -553 0
-542 -554 0
-542 -555 0
-542 -556 0
-542 -557 0
-542 -558 0
-542 -559 0
-542 -560 0
-542 -561 0
-542 -562 0
-542 -563 0
-542 -564 0
-542 -565 0
-542 -566 0
-542 -567 0
-542 -568 0
-542 -569 0
-542 -570 0
-542 -571 0
-542 -572 0
-542 -573 0
-542 -574 0
-542 -575 0
-542 -576 0
-542 -577 0
-542 -578 0
-542 -579 0
-542 -580 0
-542 -581 0
-542 -582 0
-542 -583 0
-542 -584 0
-542 -585 0
-542 -586 0
-542 -587 0
-542 -588 0
-542 -589 0
-542 -590 0
-542 -591 0
-542 -592 0
-542 -593 0
-542 -594 0
-542 -595 0
-542 -596 0
-542 -597 0
-542 -598 0
-542 -599 0
-542 -600 0
-542 -601 0
-542 -602 0
-542 -603 0
-542 -604 0
-542 -605 0
-542 -606 0
-542 -607 0
-542 -608 0
-542 -609 0
-542 -610 0
-542 -611 0
-542 -612 0
-542 -613 0
-542 -614 0
-542 -615 0
-542 -616 0
-542 -617 0
-542 -618 0
-542 -619 0
-542 -620 0
-542 -621 0
-542 -622 0
-542 -623 0
-543 -544 0
-543 -545 0
-543 -546 0
-543 -547 0
-543 -548 0
-543 -549 0
-543 -550 0
-543 -551 0
-543 -552 0
-543 -553 0
-543 -554 0
-543 -555 0
-543 -556 0
-543 -557 0
-543 -558 0
-543 -559 0
-543 -560 0
-543 -561 0
-543 -562 0
-543 -563 0
-543 -564 0
-543 -565 0
-543 -566 0
-543 -567 0
-543 -568 0
-543 -569 0
-543 -570 0
-543 -571 0
-543 -572 0
-543 -573 0
-543 -574 0
-543 -575 0
-543 -576 0
-543 -577 0
-543 -578 0
-543 -579 0
-543 -580 0
-543 -581 0
-543 -582 0
-543 -583 0
-543 -584 0
-543 -585 0
-543 -586 0
-543 -587 0
-543 -588 0
-543 -589 0
-543 -590 0
-543 -591 0
-543 -592 0
-543 -593 0
-543 -594 0
-543 -595 0
-543 -596 0
-543 -597 0
-543 -598 0
-543 -599 0
-543 -600 0
-543 -601 0
-543 -602 0
-543 -603 0
-543 -604 0
-543 -605 0
-543 -606 0
-543 -607 0
-543 -608 0
-543 -609 0
-543 -610 0
-543 -611 0
-543 -612 0
-543 -613 0
-543 -614 0
-543 -615 0
-543 -616 0
-543 -617 0
-543 -618 0
-543 -619 0
-543 -620 0
-543 -621 0
-543 -622 0
-543 -623 0
-544 -545 0
-544 -546 0
-544 -547 0
-544 -548 0
-544 -549 0
-544 -550 0
-544 -551 0
-544 -552 0
-544 -553 0
-544 -554 0
-544 -555 0
-544 -556 0
-544 -557 0
-544 -558 0
-544 -559 0
-544 -560 0
-544 -561 0
-544 -562 0
-544 -563 0
-544 -564 0
-544 -565 0
-544 -566 0
-544 -567 0
-544 -568 0
-544 -569 0
-544 -570 0
-544 -571 0
-544 -572 0
-544 -573 0
-544 -574 0
-544 -575 0
-544 -576 0
-544 -577 0
-544 -578 0
-544 -579 0
-544 -580 0
-544 -581 0
-544 -582 0
-544 -583 0
-544 -584 0
-544 -585 0
-544 -586 0
-544 -587 0
-544 -588 0
-544 -589 0
-544 -590 0
-544 -591 0
-544 -592 0
-544 -593 0
-544 -594 0
-544 -595 0
-544 -596 0
-544 -597 0
-544 -598 0
-544 -599 0
-544 -600 0
-544 -601 0
-544 -602 0
-544 -603 0
-544 -604 0
-544 -605 0
-544 -606 0
-544 -607 0
-544 -608 0
-544 -609 0
-544 -610 0
-544 -611 0
-544 -612 0
-544 -613 0
-544 -614 0
-544 -615 0
-544 -616 0
-544 -617 0
-544 -618 0
-544 -619 0
-544 -620 0
-544 -621 0
-544 -622 0
-544 -623 0
-545 -546 0
-545 -547 0
-545 -548 0
-545 -549 0
-545 -550 0
-545 -551 0
-545 -552 0
-545 -553 0
-545 -554 0
-545 -555 0
-545 -556 0
-545 -557 0
-545 -558 0
-545 -559 0
-545 -560 0
-545 -561 0
-545 -562 0
-545 -563 0
-545 -564 0
-545 -565 0
-545 -566 0
-545 -567 0
-545 -568 0
-545 -569 0
-545 -570 0
-545 -571 0
-545 -572 0
-545 -573 0
-545 -574 0
-545 -575 0
-545 -576 0
-545 -577 0
-545 -578 0
-545 -579 0
-545 -580 0
-545 -581 0
-545 -582 0
-545 -583 0
-545 -584 0
-545 -585 0
-545 -586 0
-545 -587 0
-545 -588 0
-545 -589 0
-545 -590 0
-545 -591 0
-545 -592 0
-545 -593 0
-545 -594 0
-545 -595 0
-545 -596 0
-545 -597 0
-545 -598 0
-545 -599 0
-545 -600 0
-545 -601 0
-545 -602 0
-545 -603 0
-545 -604 0
-545 -605 0
-545 -606 0
-545 -607 0
-545 -608 0
-545 -609 0
-545 -610 0
-545 -611 0
-545 -612 0
-545 -613 0
-545 -614 0
-545 -615 0
-545 -616 0
-545 -617 0
-545 -618 0
-545 -619 0
-545 -620 0
-545 -621 0
-545 -622 0
-545 -623 0
-546 -547 0
-546 -548 0
-546 -549 0
-546 -550 0
-546 -551 0
-546 -552 0
-546 -553 0
-546 -554 0
-546 -555 0
-546 -556 0
-546 -557 0
-546 -558 0
-546 -559 0
-546 -560 0
-546 -561 0
-546 -562 0
-546 -563 0
-546 -564 0
-546 -565 0
-546 -566 0
-546 -567 0
-546 -568 0
-546 -569 0
-546 -570 0
-546 -571 0
-546 -572 0
-546 -573 0
-546 -574 0
-546 -575 0
-546 -576 0
-546 -577 0
-546 -578 0
-546 -579 0
-546 -580 0
-546 -581 0
-546 -582 0
-546 -583 0
-546 -584 0
-546 -585 0
-546 -586 0
-546 -587 0
-546 -588 0
-546 -589 0
-546 -590 0
-546 -591 0
-546 -592 0
-546 -593 0
-546 -594 0
-546 -595 0
-546 -596 0
-546 -597 0
-546 -598 0
-546 -599 0
-546 -600 0
-546 -601 0
-546 -602 0
-546 -603 0
-546 -604 0
-546 -605 0
-546 -606 0
-546 -607 0
-546 -608 0
-546 -609 0
-546 -610 0
-546 -611 0
-546 -612 0
-546 -613 0
-546 -614 0
-546 -615 0
-546 -616 0
-546 -617 0
-546 -618 0
-546 -619 0
-546 -620 0
-546 -621 0
-546 -622 0
-546 -623 0
-547 -548 0
-547 -549 0
-547 -550 0
-547 -551 0
-547 -552 0
-547 -553 0
-547 -554 0
-547 -555 0
-547 -556 0
-547 -557 0
-547 -558 0
-547 -559 0
-547 -560 0
-547 -561 0
-547 -562 0
-547 -563 0
-547 -564 0
-547 -565 0
-547 -566 0
-547 -567 0
-547 -568 0
-547 -569 0
-547 -570 0
-547 -571 0
-547 -572 0
-547 -573 0
-547 -574 0
-547 -575 0
-547 -576 0
-547 -577 0
-547 -578 0
-547 -579 0
-547 -580 0
-547 -581 0
-547 -582 0
-547 -583 0
-547 -584 0
-547 -585 0
-547 -586 0
-547 -587 0
-547 -588 0
-547 -589 0
-547 -590 0
-547 -591 0
-547 -592 0
-547 -593 0
-547 -594 0
-547 -595 0
-547 -596 0
-547 -597 0
-547 -598 0
-547 -599 0
-547 -600 0
-547 -601 0
-547 -602 0
-547 -603 0
-547 -604 0
-547 -605 0
-547 -606 0
-547 -607 0
-547 -608 0
-547 -609 0
-547 -610 0
-547 -611 0
-547 -612 0
-547 -613 0
-547 -614 0
-547 -615 0
-547 -616 0
-547 -617 0
-547 -618 0
-547 -619 0
-547 -620 0
-547 -621 0
-547 -622 0
-547 -623 0
-548 -549 0
-548 -550 0
-548 -551 0
-548 -552 0
-548 -553 0
-548 -554 0
-548 -555 0
-548 -556 0
-548 -557 0
-548 -558 0
-548 -559 0
-548 -560 0
-548 -561 0
-548 -562 0
-548 -563 0
-548 -564 0
-548 -565 0
-548 -566 0
-548 -567 0
-548 -568 0
-548 -569 0
-548 -570 0
-548 -571 0
-548 -572 0
-548 -573 0
-548 -574 0
-548 -575 0
-548 -576 0
-548 -577 0
-548 -578 0
-548 -579 0
-548 -580 0
-548 -581 0
-548 -582 0
-548 -583 0
-548 -584 0
-548 -585 0
-548 -586 0
-548 -587 0
-548 -588 0
-548 -589 0
-548 -590 0
-548 -591 0
-548 -592 0
-548 -593 0
-548 -594 0
-548 -595 0
-548 -596 0
-548 -597 0
-548 -598 0
-548 -599 0
-548 -600 0
-548 -601 0
-548 -602 0
-548 -603 0
-548 -604 0
-548 -605 0
-548 -606 0
-548 -607 0
-548 -608 0
-548 -609 0
-548 -610 0
-548 -611 0
-548 -612 0
-548 -613 0
-548 -614 0
-548 -615 0
-548 -616 0
-548 -617 0
-548 -618 0
-548 -619 0
-548 -620 0
-548 -621 0
-548 -622 0
-548 -623 0
-549 -550 0
-549 -551 0
-549 -552 0
-549 -553 0
-549 -554 0
-549 -555 0
-549 -556 0
-549 -557 0
-549 -558 0
-549 -559 0
-549 -560 0
-549 -561 0
-549 -562 0
-549 -563 0
-549 -564 0
-549 -565 0
-549 -566 0
-549 -567 0
-549 -568 0
-549 -569 0
-549 -570 0
-549 -571 0
-549 -572 0
-549 -573 0
-549 -574 0
-549 -575 0
-549 -576 0
-549 -577 0
-549 -578 0
-549 -579 0
-549 -580 0
-549 -581 0
-549 -582 0
-549 -583 0
-549 -584 0
-549 -585 0
-549 -586 0
-549 -587 0
-549 -588 0
-549 -589 0
-549 -590 0
-549 -591 0
-549 -592 0
-549 -593 0
-549 -594 0
-549 -595 0
-549 -596 0
-549 -597 0
-549 -598 0
-549 -599 0
-549 -600 0
-549 -601 0
-549 -602 0
-549 -603 0
-549 -604 0
-549 -605 0
-549 -606 0
-549 -607 0
-549 -608 0
-549 -609 0
-549 -610 0
-549 -611 0
-549 -612 0
-549 -613 0
-549 -614 0
-549 -615 0
-549 -616 0
-549 -617 0
-549 -618 0
-549 -619 0
-549 -620 0
-549 -621 0
-549 -622 0
-549 -623 0
-550 -551 0
-550 -552 0
-550 -553 0
-550 -554 0
-550 -555 0
-550 -556 0
-550 -557 0
-550 -558 0
-550 -559 0
-550 -560 0
-550 -561 0
-550 -562 0
-550 -563 0
-550 -564 0
-550 -565 0
-550 -566 0
-550 -567 0
-550 -568 0
-550 -569 0
-550 -570 0
-550 -571 0
-550 -572 0
-550 -573 0
-550 -574 0
-550 -575 0
-550 -576 0
-550 -577 0
-550 -578 0
-550 -579 0
-550 -580 0
-550 -581 0
-550 -582 0
-550 -583 0
-550 -584 0
-550 -585 0
-550 -586 0
-550 -587 0
-550 -588 0
-550 -589 0
-550 -590 0
-550 -591 0
-550 -592 0
-550 -593 0
-550 -594 0
-550 -595 0
-550 -596 0
-550 -597 0
-550 -598 0
-550 -599 0
-550 -600 0
-550 -601 0
-550 -602 0
-550 -603 0
-550 -604 0
-550 -605 0
-550 -606 0
-550 -607 0
-550 -608 0
-550 -609 0
-550 -610 0
-550 -611 0
-550 -612 0
-550 -613 0
-550 -614 0
-550 -615 0
-550 -616 0
-550 -617 0
-550 -618 0
-550 -619 0
-550 -620 0
-550 -621 0
-550 -622 0
-550 -623 0
-551 -552 0
-551 -553 0
-551 -554 0
-551 -555 0
-551 -556 0
-551 -557 0
-551 -558 0
-551 -559 0
-551 -560 0
-551 -561 0
-551 -562 0
-551 -563 0
-551 -564 0
-551 -565 0
-551 -566 0
-551 -567 0
-551 -568 0
-551 -569 0
-551 -570 0
-551 -571 0
-551 -572 0
-551 -573 0
-551 -574 0
-551 -575 0
-551 -576 0
-551 -577 0
-551 -578 0
-551 -579 0
-551 -580 0
-551 -581 0
-551 -582 0
-551 -583 0
-551 -584 0
-551 -585 0
-551 -586 0
-551 -587 0
-551 -588 0
-551 -589 0
-551 -590 0
-551 -591 0
-551 -592 0
-551 -593 0
-551 -594 0
-551 -595 0
-551 -596 0
-551 -597 0
-551 -598 0
-551 -599 0
-551 -600 0
-551 -601 0
-551 -602 0
-551 -603 0
-551 -604 0
-551 -605 0
-551 -606 0
-551 -607 0
-551 -608 0
-551 -609 0
-551 -610 0
-551 -611 0
-551 -612 0
-551 -613 0
-551 -614 0
-551 -615 0
-551 -616 0
-551 -617 0
-551 -618 0
-551 -619 0
-551 -620 0
-551 -621 0
-551 -622 0
-551 -623 0
-552 -553 0
-552 -554 0
-552 -555 0
-552 -556 0
-552 -557 0
-552 -558 0
-552 -559 0
-552 -560 0
-552 -561 0
-552 -562 0
-552 -563 0
-552 -564 0
-552 -565 0
-552 -566 0
-552 -567 0
-552 -568 0
-552 -569 0
-552 -570 0
-552 -571 0
-552 -572 0
-552 -573 0
-552 -574 0
-552 -575 0
-552 -576 0
-552 -577 0
-552 -578 0
-552 -579 0
-552 -580 0
-552 -581 0
-552 -582 0
-552 -583 0
-552 -584 0
-552 -585 0
-552 -586 0
-552 -587 0
-552 -588 0
-552 -589 0
-552 -590 0
-552 -591 0
-552 -592 0
-552 -593 0
-552 -594 0
-552 -595 0
-552 -596 0
-552 -597 0
-552 -598 0
-552 -599 0
-552 -600 0
-552 -601 0
-552 -602 0
-552 -603 0
-552 -604 0
-552 -605 0
-552 -606 0
-552 -607 0
-552 -608 0
-552 -609 0
-552 -610 0
-552 -611 0
-552 -612 0
-552 -613 0
-552 -614 0
-552 -615 0
-552 -616 0
-552 -617 0
-552 -618 0
-552 -619 0
-552 -620 0
-552 -621 0
-552 -622 0
-552 -623 0
-553 -554 0
-553 -555 0
-553 -556 0
-553 -557 0
-553 -558 0
-553 -559 0
-553 -560 0
-553 -561 0
-553 -562 0
-553 -563 0
-553 -564 0
-553 -565 0
-553 -566 0
-553 -567 0
-553 -568 0
-553 -569 0
-553 -570 0
-553 -571 0
-553 -572 0
-553 -573 0
-553 -574 0
-553 -575 0
-553 -576 0
-553 -577 0
-553 -578 0
-553 -579 0
-553 -580 0
-553 -581 0
-553 -582 0
-553 -583 0
-553 -584 0
-553 -585 0
-553 -586 0
-553 -587 0
-553 -588 0
-553 -589 0
-553 -590 0
-553 -591 0
-553 -592 0
-553 -593 0
-553 -594 0
-553 -595 0
-553 -596 0
-553 -597 0
-553 -598 0
-553 -599 0
-553 -600 0
-553 -601 0
-553 -602 0
-553 -603 0
-553 -604 0
-553 -605 0
-553 -606 0
-553 -607 0
-553 -608 0
-553 -609 0
-553 -610 0
-553 -611 0
-553 -612 0
-553 -613 0
-553 -614 0
-553 -615 0
-553 -616 0
-553 -617 0
-553 -618 0
-553 -619 0
-553 -620 0
-553 -621 0
-553 -622 0
-553 -623 0
-554 -555 0
-554 -556 0
-554 -557 0
-554 -558 0
-554 -559 0
-554 -560 0
-554 -561 0
-554 -562 0
-554 -563 0
-554 -564 0
-554 -565 0
-554 -566 0
-554 -567 0
-554 -568 0
-554 -569 0
-554 -570 0
-554 -571 0
-554 -572 0
-554 -573 0
-554 -574 0
-554 -575 0
-554 -576 0
-554 -577 0
-554 -578 0
-554 -579 0
-554 -580 0
-554 -581 0
-554 -582 0
-554 -583 0
-554 -584 0
-554 -585 0
-554 -586 0
-554 -587 0
-554 -588 0
-554 -589 0
-554 -590 0
-554 -591 0
-554 -592 0
-554 -593 0
-554 -594 0
-554 -595 0
-554 -596 0
-554 -597 0
-554 -598 0
-554 -599 0
-554 -600 0
-554 -601 0
-554 -602 0
-554 -603 0
-554 -604 0
-554 -605 0
-554 -606 0
-554 -607 0
-554 -608 0
-554 -609 0
-554 -610 0
-554 -611 0
-554 -612 0
-554 -613 0
-554 -614 0
-554 -615 0
-554 -616 0
-554 -617 0
-554 -618 0
-554 -619 0
-554 -620 0
-554 -621 0
-554 -622 0
-554 -623 0
-555 -556 0
-555 -557 0
-555 -558 0
-555 -559 0
-555 -560 0
-555 -561 0
-555 -562 0
-555 -563 0
-555 -564 0
-555 -565 0
-555 -566 0
-555 -567 0
-555 -568 0
-555 -569 0
-555 -570 0
-555 -571 0
-555 -572 0
-555 -573 0
-555 -574 0
-555 -575 0
-555 -576 0
-555 -577 0
-555 -578 0
-555 -579 0
-555 -580 0
-555 -581 0
-555 -582 0
-555 -583 0
-555 -584 0
-555 -585 0
-555 -586 0
-555 -587 0
-555 -588 0
-555 -589 0
-555 -590 0
-555 -591 0
-555 -592 0
-555 -593 0
-555 -594 0
-555 -595 0
-555 -596 0
-555 -597 0
-555 -598 0
-555 -599 0
-555 -600 0
-555 -601 0
-555 -602 0
-555 -603 0
-555 -604 0
-555 -605 0
-555 -606 0
-555 -607 0
-555 -608 0
-555 -609 0
-555 -610 0
-555 -611 0
-555 -612 0
-555 -613 0
-555 -614 0
-555 -615 0
-555 -616 0
-555 -617 0
-555 -618 0
-555 -619 0
-555 -620 0
-555 -621 0
-555 -622 0
-555 -623 0
-556 -557 0
-556 -558 0
-556 -559 0
-556 -560 0
-556 -561 0
-556 -562 0
-556 -563 0
-556 -564 0
-556 -565 0
-556 -566 0
-556 -567 0
-556 -568 0
-556 -569 0
-556 -570 0
-556 -571 0
-556 -572 0
-556 -573 0
-556 -574 0
-556 -575 0
-556 -576 0
-556 -577 0
-556 -578 0
-556 -579 0
-556 -580 0
-556 -581 0
-556 -582 0
-556 -583 0
-556 -584 0
-556 -585 0
-556 -586 0
-556 -587 0
-556 -588 0
-556 -589 0
-556 -590 0
-556 -591 0
-556 -592 0
-556 -593 0
-556 -594 0
-556 -595 0
-556 -596 0
-556 -597 0
-556 -598 0
-556 -599 0
-556 -600 0
-556 -601 0
-556 -602 0
-556 -603 0
-556 -604 0
-556 -605 0
-556 -606 0
-556 -607 0
-556 -608 0
-556 -609 0
-556 -610 0
-556 -611 0
-556 -612 0
-556 -613 0
-556 -614 0
-556 -615 0
-556 -616 0
-556 -617 0
-556 -618 0
-556 -619 0
-556 -620 0
-556 -621 0
-556 -622 0
-556 -623 0
-557 -558 0
-557 -559 0
-557 -560 0
-557 -561 0
-557 -562 0
-557 -563 0
-557 -564 0
-557 -565 0
-557 -566 0
-557 -567 0
-557 -568 0
-557 -569 0
-557 -570 0
-557 -571 0
-557 -572 0
-557 -573 0
-557 -574 0
-557 -575 0
-557 -576 0
-557 -577 0
-557 -578 0
-557 -579 0
-557 -580 0
-557 -581 0
-557 -582 0
-557 -583 0
-557 -584 0
-557 -585 0
-557 -586 0
-557 -587 0
-557 -588 0
-557 -589 0
-557 -590 0
-557 -591 0
-557 -592 0
-557 -593 0
-557 -594 0
-557 -595 0
-557 -596 0
-557 -597 0
-557 -598 0
-557 -599 0
-557 -600 0
-557 -601 0
-557 -602 0
-557 -603 0
-557 -604 0
-557 -605 0
-557 -606 0
-557 -607 0
-557 -608 0
-557 -609 0
-557 -610 0
-557 -611 0
-557 -612 0
-557 -613 0
-557 -614 0
-557 -615 0
-557 -616 0
-557 -617 0
-557 -618 0
-557 -619 0
-557 -620 0
-557 -621 0
-557 -622 0
-557 -623 0
-558 -559 0
-558 -560 0
-558 -561 0
-558 -562 0
-558 -563 0
-558 -564 0
-558 -565 0
-558 -566 0
-558 -567 0
-558 -568 0
-558 -569 0
-558 -570 0
-558 -571 0
-558 -572 0
-558 -573 0
-558 -574 0
-558 -575 0
-558 -576 0
-558 -577 0
-558 -578 0
-558 -579 0
-558 -580 0
-558 -581 0
-558 -582 0
-558 -583 0
-558 -584 0
-558 -585 0
-558 -586 0
-558 -587 0
-558 -588 0
-558 -589 0
-558 -590 0
-558 -591 0
-558 -592 0
-558 -593 0
-558 -594 0
-558 -595 0
-558 -596 0
-558 -597 0
-558 -598 0
-558 -599 0
-558 -600 0
-558 -601 0
-558 -602 0
-558 -603 0
-558 -604 0
-558 -605 0
-558 -606 0
-558 -607 0
-558 -608 0
-558 -609 0
-558 -610 0
-558 -611 0
-558 -612 0
-558 -613 0
-558 -614 0
-558 -615 0
-558 -616 0
-558 -617 0
-558 -618 0
-558 -619 0
-558 -620 0
-558 -621 0
-558 -622 0
-558 -623 0
-559 -560 0
-559 -561 0
-559 -562 0
-559 -563 0
-559 -564 0
-559 -565 0
-559 -566 0
-559 -567 0
-559 -568 0
-559 -569 0
-559 -570 0
-559 -571 0
-559 -572 0
-559 -573 0
-559 -574 0
-559 -575 0
-559 -576 0
-559 -577 0
-559 -578 0
-559 -579 0
-559 -580 0
-559 -581 0
-559 -582 0
-559 -583 0
-559 -584 0
-559 -585 0
-559 -586 0
-559 -587 0
-559 -588 0
-559 -589 0
-559 -590 0
-559 -591 0
-559 -592 0
-559 -593 0
-559 -594 0
-559 -595 0
-559 -596 0
-559 -597 0
-559 -598 0
-559 -599 0
-559 -600 0
-559 -601 0
-559 -602 0
-559 -603 0
-559 -604 0
-559 -605 0
-559 -606 0
-559 -607 0
-559 -608 0
-559 -609 0
-559 -610 0
-559 -611 0
-559 -612 0
-559 -613 0
-559 -614 0
-559 -615 0
-559 -616 0
-559 -617 0
-559 -618 0
-559 -619 0
-559 -620 0
-559 -621 0
-559 -622 0
-559 -623 0
-560 -561 0
-560 -562 0
-560 -563 0
-560 -564 0
-560 -565 0
-560 -566 0
-560 -567 0
-560 -568 0
-560 -569 0
-560 -570 0
-560 -571 0
-560 -572 0
-560 -573 0
-560 -574 0
-560 -575 0
-560 -576 0
-560 -577 0
-560 -578 0
-560 -579 0
-560 -580 0
-560 -581 0
-560 -582 0
-560 -583 0
-560 -584 0
-560 -585 0
-560 -586 0
-560 -587 0
-560 -588 0
-560 -589 0
-560 -590 0
-560 -591 0
-560 -592 0
-560 -593 0
-560 -594 0
-560 -595 0
-560 -596 0
-560 -597 0
-560 -598 0
-560 -599 0
-560 -600 0
-560 -601 0
-560 -602 0
-560 -603 0
-560 -604 0
-560 -605 0
-560 -606 0
-560 -607 0
-560 -608 0
-560 -609 0
-560 -610 0
-560 -611 0
-560 -612 0
-560 -613 0
-560 -614 0
-560 -615 0
-560 -616 0
-560 -617 0
-560 -618 0
-560 -619 0
-560 -620 0
-560 -621 0
-560 -622 0
-560 -623 0
-561 -562 0
-561 -563 0
-561 -564 0
-561 -565 0
-561 -566 0
-561 -567 0
-561 -568 0
-561 -569 0
-561 -570 0
-561 -571 0
-561 -572 0
-561 -573 0
-561 -574 0
-561 -575 0
-561 -576 0
-561 -577 0
-561 -578 0
-561 -579 0
-561 -580 0
-561 -581 0
-561 -582 0
-561 -583 0
-561 -584 0
-561 -585 0
-561 -586 0
-561 -587 0
-561 -588 0
-561 -589 0
-561 -590 0
-561 -591 0
-561 -592 0
-561 -593 0
-561 -594 0
-561 -595 0
-561 -596 0
-561 -597 0
-561 -598 0
-561 -599 0
-561 -600 0
-561 -601 0
-561 -602 0
-561 -603 0
-561 -604 0
-561 -605 0
-561 -606 0
-561 -607 0
-561 -608 0
-561 -609 0
-561 -610 0
-561 -611 0
-561 -612 0
-561 -613 0
-561 -614 0
-561 -615 0
-561 -616 0
-561 -617 0
-561 -618 0
-561 -619 0
-561 -620 0
-561 -621 0
-561 -622 0
-561 -623 0
-562 -563 0
-562 -564 0
-562 -565 0
-562 -566 0
-562 -567 0
-562 -568 0
-562 -569 0
-562 -570 0
-562 -571 0
-562 -572 0
-562 -573 0
-562 -574 0
-562 -575 0
-562 -576 0
-562 -577 0
-562 -578 0
-562 -579 0
-562 -580 0
-562 -581 0
-562 -582 0
-562 -583 0
-562 -584 0
-562 -585 0
-562 -586 0
-562 -587 0
-562 -588 0
-562 -589 0
-562 -590 0
-562 -591 0
-562 -592 0
-562 -593 0
-562 -594 0
-562 -595 0
-562 -596 0
-562 -597 0
-562 -598 0
-562 -599 0
-562 -600 0
-562 -601 0
-562 -602 0
-562 -603 0
-562 -604 0
-562 -605 0
-562 -606 0
-562 -607 0
-562 -608 0
-562 -609 0
-562 -610 0
-562 -611 0
-562 -612 0
-562 -613 0
-562 -614 0
-562 -615 0
-562 -616 0
-562 -617 0
-562 -618 0
-562 -619 0
-562 -620 0
-562 -621 0
-562 -622 0
-562 -623 0
-563 -564 0
-563 -565 0
-563 -566 0
-563 -567 0
-563 -568 0
-563 -569 0
-563 -570 0
-563 -571 0
-563 -572 0
-563 -573 0
-563 -574 0
-563 -575 0
-563 -576 0
-563 -577 0
-563 -578 0
-563 -579 0
-563 -580 0
-563 -581 0
-563 -582 0
-563 -583 0
-563 -584 0
-563 -585 0
-563 -586 0
-563 -587 0
-563 -588 0
-563 -589 0
-563 -590 0
-563 -591 0
-563 -592 0
-563 -593 0
-563 -594 0
-563 -595 0
-563 -596 0
-563 -597 0
-563 -598 0
-563 -599 0
-563 -600 0
-563 -601 0
-563 -602 0
-563 -603 0
-563 -604 0
-563 -605 0
-563 -606 0
-563 -607 0
-563 -608 0
-563 -609 0
-563 -610 0
-563 -611 0
-563 -612 0
-563 -613 0
-563 -614 0
-563 -615 0
-563 -616 0
-563 -617 0
-563 -618 0
-563 -619 0
-563 -620 0
-563 -621 0
-563 -622 0
-563 -623 0
-564 -565 0
-564 -566 0
-564 -567 0
-564 -568 0
-564 -569 0
-564 -570 0
-564 -571 0
-564 -572 0
-564 -573 0
-564 -574 0
-564 -575 0
-564 -576 0
-564 -577 0
-564 -578 0
-564 -579 0
-564 -580 0
-564 -581 0
-564 -582 0
-564 -583 0
-564 -584 0
-564 -585 0
-564 -586 0
-564 -587 0
-564 -588 0
-564 -589 0
-564 -590 0
-564 -591 0
-564 -592 0
-564 -593 0
-564 -594 0
-564 -595 0
-564 -596 0
-564 -597 0
-564 -598 0
-564 -599 0
-564 -600 0
-564 -601 0
-564 -602 0
-564 -603 0
-564 -604 0
-564 -605 0
-564 -606 0
-564 -607 0
-564 -608 0
-564 -609 0
-564 -610 0
-564 -611 0
-564 -612 0
-564 -613 0
-564 -614 0
-564 -615 0
-564 -616 0
-564 -617 0
-564 -618 0
-564 -619 0
-564 -620 0
-564 -621 0
-564 -622 0
-564 -623 0
-565 -566 0
-565 -567 0
-565 -568 0
-565 -569 0
-565 -570 0
-565 -571 0
-565 -572 0
-565 -573 0
-565 -574 0
-565 -575 0
-565 -576 0
-565 -577 0
-565 -578 0
-565 -579 0
-565 -580 0
-565 -581 0
-565 -582 0
-565 -583 0
-565 -584 0
-565 -585 0
-565 -586 0
-565 -587 0
-565 -588 0
-565 -589 0
-565 -590 0
-565 -591 0
-565 -592 0
-565 -593 0
-565 -594 0
-565 -595 0
-565 -596 0
-565 -597 0
-565 -598 0
-565 -599 0
-565 -600 0
-565 -601 0
-565 -602 0
-565 -603 0
-565 -604 0
-565 -605 0
-565 -606 0
-565 -607 0
-565 -608 0
-565 -609 0
-565 -610 0
-565 -611 0
-565 -612 0
-565 -613 0
-565 -614 0
-565 -615 0
-565 -616 0
-565 -617 0
-565 -618 0
-565 -619 0
-565 -620 0
-565 -621 0
-565 -622 0
-565 -623 0
-566 -567 0
-566 -568 0
-566 -569 0
-566 -570 0
-566 -571 0
-566 -572 0
-566 -573 0
-566 -574 0
-566 -575 0
-566 -576 0
-566 -577 0
-566 -578 0
-566 -579 0
-566 -580 0
-566 -581 0
-566 -582 0
-566 -583 0
-566 -584 0
-566 -585 0
-566 -586 0
-566 -587 0
-566 -588 0
-566 -589 0
-566 -590 0
-566 -591 0
-566 -592 0
-566 -593 0
-566 -594 0
-566 -595 0
-566 -596 0
-566 -597 0
-566 -598 0
-566 -599 0
-566 -600 0
-566 -601 0
-566 -602 0
-566 -603 0
-566 -604 0
-566 -605 0
-566 -606 0
-566 -607 0
-566 -608 0
-566 -609 0
-566 -610 0
-566 -611 0
-566 -612 0
-566 -613 0
-566 -614 0
-566 -615 0
-566 -616 0
-566 -617 0
-566 -618 0
-566 -619 0
-566 -620 0
-566 -621 0
-566 -622 0
-566 -623 0
-567 -568 0
-567 -569 0
-567 -570 0
-567 -571 0
-567 -572 0
-567 -573 0
-567 -574 0
-567 -575 0
-567 -576 0
-567 -577 0
-567 -578 0
-567 -579 0
-567 -580 0
-567 -581 0
-567 -582 0
-567 -583 0
-567 -584 0
-567 -585 0
-567 -586 0
-567 -587 0
-567 -588 0
-567 -589 0
-567 -590 0
-567 -591 0
-567 -592 0
-567 -593 0
-567 -594 0
-567 -595 0
-567 -596 0
-567 -597 0
-567 -598 0
-567 -599 0
-567 -600 0
-567 -601 0
-567 -602 0
-567 -603 0
-567 -604 0
-567 -605 0
-567 -606 0
-567 -607 0
-567 -608 0
-567 -609 0
-567 -610 0
-567 -611 0
-567 -612 0
-567 -613 0
-567 -614 0
-567 -615 0
-567 -616 0
-567 -617 0
-567 -618 0
-567 -619 0
-567 -620 0
-567 -621 0
-567 -622 0
-567 -623 0
-568 -569 0
-568 -570 0
-568 -571 0
-568 -572 0
-568 -573 0
-568 -574 0
-568 -575 0
-568 -576 0
-568 -577 0
-568 -578 0
-568 -579 0
-568 -580 0
-568 -581 0
-568 -582 0
-568 -583 0
-568 -584 0
-568 -585 0
-568 -586 0
-568 -587 0
-568 -588 0
-568 -589 0
-568 -590 0
-568 -591 0
-568 -592 0
-568 -593 0
-568 -594 0
-568 -595 0
-568 -596 0
-568 -597 0
-568 -598 0
-568 -599 0
-568 -600 0
-568 -601 0
-568 -602 0
-568 -603 0
-568 -604 0
-568 -605 0
-568 -606 0
-568 -607 0
-568 -608 0
-568 -609 0
-568 -610 0
-568 -611 0
-568 -612 0
-568 -613 0
-568 -614 0
-568 -615 0
-568 -616 0
-568 -617 0
-568 -618 0
-568 -619 0
-568 -620 0
-568 -621 0
-568 -622 0
-568 -623 0
-569 -570 0
-569 -571 0
-569 -572 0
-569 -573 0
-569 -574 0
-569 -575 0
-569 -576 0
-569 -577 0
-569 -578 0
-569 -579 0
-569 -580 0
-569 -581 0
-569 -582 0
-569 -583 0
-569 -584 0
-569 -585 0
-569 -586 0
-569 -587 0
-569 -588 0
-569 -589 0
-569 -590 0
-569 -591 0
-569 -592 0
-569 -593 0
-569 -594 0
-569 -595 0
-569 -596 0
-569 -597 0
-569 -598 0
-569 -599 0
-569 -600 0
-569 -601 0
-569 -602 0
-569 -603 0
-569 -604 0
-569 -605 0
-569 -606 0
-569 -607 0
-569 -608 0
-569 -609 0
-569 -610 0
-569 -611 0
-569 -612 0
-569 -613 0
-569 -614 0
-569 -615 0
-569 -616 0
-569 -617 0
-569 -618 0
-569 -619 0
-569 -620 0
-569 -621 0
-569 -622 0
-569 -623 0
-570 -571 0
-570 -572 0
-570 -573 0
-570 -574 0
-570 -575 0
-570 -576 0
-570 -577 0
-570 -578 0
-570 -579 0
-570 -580 0
-570 -581 0
-570 -582 0
-570 -583 0
-570 -584 0
-570 -585 0
-570 -586 0
-570 -587 0
-570 -588 0
-570 -589 0
-570 -590 0
-570 -591 0
-570 -592 0
-570 -593 0
-570 -594 0
-570 -595 0
-570 -596 0
-570 -597 0
-570 -598 0
-570 -599 0
-570 -600 0
-570 -601 0
-570 -602 0
-570 -603 0
-570 -604 0
-570 -605 0
-570 -606 0
-570 -607 0
-570 -608 0
-570 -609 0
-570 -610 0
-570 -611 0
-570 -612 0
-570 -613 0
-570 -614 0
-570 -615 0
-570 -616 0
-570 -617 0
-570 -618 0
-570 -619 0
-570 -620 0
-570 -621 0
-570 -622 0
-570 -623 0
-571 -572 0
-571 -573 0
-571 -574 0
-571 -575 0
-571 -576 0
-571 -577 0
-571 -578 0
-571 -579 0
-571 -580 0
-571 -581 0
-571 -582 0
-571 -583 0
-571 -584 0
-571 -585 0
-571 -586 0
-571 -587 0
-571 -588 0
-571 -589 0
-571 -590 0
-571 -591 0
-571 -592 0
-571 -593 0
-571 -594 0
-571 -595 0
-571 -596 0
-571 -597 0
-571 -598 0
-571 -599 0
-571 -600 0
-571 -601 0
-571 -602 0
-571 -603 0
-571 -604 0
-571 -605 0
-571 -606 0
-571 -607 0
-571 -608 0
-571 -609 0
-571 -610 0
-571 -611 0
-571 -612 0
-571 -613 0
-571 -614 0
-571 -615 0
-571 -616 0
-571 -617 0
-571 -618 0
-571 -619 0
-571 -620 0
-571 -621 0
-571 -622 0
-571 -623 0
-572 -573 0
-572 -574 0
-572 -575 0
-572 -576 0
-572 -577 0
-572 -578 0
-572 -579 0
-572 -580 0
-572 -581 0
-572 -582 0
-572 -583 0
-572 -584 0
-572 -585 0
-572 -586 0
-572 -587 0
-572 -588 0
-572 -589 0
-572 -590 0
-572 -591 0
-572 -592 0
-572 -593 0
-572 -594 0
-572 -595 0
-572 -596 0
-572 -597 0
-572 -598 0
-572 -599 0
-572 -600 0
-572 -601 0
-572 -602 0
-572 -603 0
-572 -604 0
-572 -605 0
-572 -606 0
-572 -607 0
-572 -608 0
-572 -609 0
-572 -610 0
-572 -611 0
-572 -612 0
-572 -613 0
-572 -614 0
-572 -615 0
-572 -616 0
-572 -617 0
-572 -618 0
-572 -619 0
-572 -620 0
-572 -621 0
-572 -622 0
-572 -623 0
-573 -574 0
-573 -575 0
-573 -576 0
-573 -577 0
-573 -578 0
-573 -579 0
-573 -580 0
-573 -581 0
-573 -582 0
-573 -583 0
-573 -584 0
-573 -585 0
-573 -586 0
-573 -587 0
-573 -588 0
-573 -589 0
-573 -590 0
-573 -591 0
-573 -592 0
-573 -593 0
-573 -594 0
-573 -595 0
-573 -596 0
-573 -597 0
-573 -598 0
-573 -599 0
-573 -600 0
-573 -601 0
-573 -602 0
-573 -603 0
-573 -604 0
-573 -605 0
-573 -606 0
-573 -607 0
-573 -608 0
-573 -609 0
-573 -610 0
-573 -611 0
-573 -612 0
-573 -613 0
-573 -614 0
-573 -615 0
-573 -616 0
-573 -617 0
-573 -618 0
-573 -619 0
-573 -620 0
-573 -621 0
-573 -622 0
-573 -623 0
-574 -575 0
-574 -576 0
-574 -577 0
-574 -578 0
-574 -579 0
-574 -580 0
-574 -581 0
-574 -582 0
-574 -583 0
-574 -584 0
-574 -585 0
-574 -586 0
-574 -587 0
-574 -588 0
-574 -589 0
-574 -590 0
-574 -591 0
-574 -592 0
-574 -593 0
-574 -594 0
-574 -595 0
-574 -596 0
-574 -597 0
-574 -598 0
-574 -599 0
-574 -600 0
-574 -601 0
-574 -602 0
-574 -603 0
-574 -604 0
-574 -605 0
-574 -606 0
-574 -607 0
-574 -608 0
-574 -609 0
-574 -610 0
-574 -611 0
-574 -612 0
-574 -613 0
-574 -614 0
-574 -615 0
-574 -616 0
-574 -617 0
-574 -618 0
-574 -619 0
-574 -620 0
-574 -621 0
-574 -622 0
-574 -623 0
-575 -576 0
-575 -577 0
-575 -578 0
-575 -579 0
-575 -580 0
-575 -581 0
-575 -582 0
-575 -583 0
-575 -584 0
-575 -585 0
-575 -586 0
-575 -587 0
-575 -588 0
-575 -589 0
-575 -590 0
-575 -591 0
-575 -592 0
-575 -593 0
-575 -594 0
-575 -595 0
-575 -596 0
-575 -597 0
-575 -598 0
-575 -599 0
-575 -600 0
-575 -601 0
-575 -602 0
-575 -603 0
-575 -604 0
-575 -605 0
-575 -606 0
-575 -607 0
-575 -608 0
-575 -609 0
-575 -610 0
-575 -611 0
-575 -612 0
-575 -613 0
-575 -614 0
-575 -615 0
-575 -616 0
-575 -617 0
-575 -618 0
-575 -619 0
-575 -620 0
-575 -621 0
-575 -622 0
-575 -623 0
-576 -577 0
-576 -578 0
-576 -579 0
-576 -580 0
-576 -581 0
-576 -582 0
-576 -583 0
-576 -584 0
-576 -585 0
-576 -586 0
-576 -587 0
-576 -588 0
-576 -589 0
-576 -590 0
-576 -591 0
-576 -592 0
-576 -593 0
-576 -594 0
-576 -595 0
-576 -596 0
-576 -597 0
-576 -598 0
-576 -599 0
-576 -600 0
-576 -601 0
-576 -602 0
-576 -603 0
-576 -604 0
-576 -605 0
-576 -606 0
-576 -607 0
-576 -608 0
-576 -609 0
-576 -610 0
-576 -611 0
-576 -612 0
-576 -613 0
-576 -614 0
-576 -615 0
-576 -616 0
-576 -617 0
-576 -618 0
-576 -619 0
-576 -620 0
-576 -621 0
-576 -622 0
-576 -623 0
-577 -578 0
-577 -579 0
-577 -580 0
-577 -581 0
-577 -582 0
-577 -583 0
-577 -584 0
-577 -585 0
-577 -586 0
-577 -587 0
-577 -588 0
-577 -589 0
-577 -590 0
-577 -591 0
-577 -592 0
-577 -593 0
-577 -594 0
-577 -595 0
-577 -596 0
-577 -597 0
-577 -598 0
-577 -599 0
-577 -600 0
-577 -601 0
-577 -602 0
-577 -603 0
-577 -604 0
-577 -605 0
-577 -606 0
-577 -607 0
-577 -608 0
-577 -609 0
-577 -610 0
-577 -611 0
-577 -612 0
-577 -613 0
-577 -614 0
-577 -615 0
-577 -616 0
-577 -617 0
-577 -618 0
-577 -619 0
-577 -620 0
-577 -621 0
-577 -622 0
-577 -623 0
-578 -579 0
-578 -580 0
-578 -581 0
-578 -582 0
-578 -583 0
-578 -584 0
-578 -585 0
-578 -586 0
-578 -587 0
-578 -588 0
-578 -589 0
-578 -590 0
-578 -591 0
-578 -592 0
-578 -593 0
-578 -594 0
-578 -595 0
-578 -596 0
-578 -597 0
-578 -598 0
-578 -599 0
-578 -600 0
-578 -601 0
-578 -602 0
-578 -603 0
-578 -604 0
-578 -605 0
-578 -606 0
-578 -607 0
-578 -608 0
-578 -609 0
-578 -610 0
-578 -611 0
-578 -612 0
-578 -613 0
-578 -614 0
-578 -615 0
-578 -616 0
-578 -617 0
-578 -618 0
-578 -619 0
-578 -620 0
-578 -621 0
-578 -622 0
-578 -623 0
-579 -580 0
-579 -581 0
-579 -582 0
-579 -583 0
-579 -584 0
-579 -585 0
-579 -586 0
-579 -587 0
-579 -588 0
-579 -589 0
-579 -590 0
-579 -591 0
-579 -592 0
-579 -593 0
-579 -594 0
-579 -595 0
-579 -596 0
-579 -597 0
-579 -598 0
-579 -599 0
-579 -600 0
-579 -601 0
-579 -602 0
-579 -603 0
-579 -604 0
-579 -605 0
-579 -606 0
-579 -607 0
-579 -608 0
-579 -609 0
-579 -610 0
-579 -611 0
-579 -612 0
-579 -613 0
-579 -614 0
-579 -615 0
-579 -616 0
-579 -617 0
-579 -618 0
-579 -619 0
-579 -620 0
-579 -621 0
-579 -622 0
-579 -623 0
-580 -581 0
-580 -582 0
-580 -583 0
-580 -584 0
-580 -585 0
-580 -586 0
-580 -587 0
-580 -588 0
-580 -589 0
-580 -590 0
-580 -591 0
-580 -592 0
-580 -593 0
-580 -594 0
-580 -595 0
-580 -596 0
-580 -597 0
-580 -598 0
-580 -599 0
-580 -600 0
-580 -601 0
-580 -602 0
-580 -603 0
-580 -604 0
-580 -605 0
-580 -606 0
-580 -607 0
-580 -608 0
-580 -609 0
-580 -610 0
-580 -611 0
-580 -612 0
-580 -613 0
-580 -614 0
-580 -615 0
-580 -616 0
-580 -617 0
-580 -618 0
-580 -619 0
-580 -620 0
-580 -621 0
-580 -622 0
-580 -623 0
-581 -582 0
-581 -583 0
-581 -584 0
-581 -585 0
-581 -586 0
-581 -587 0
-581 -588 0
-581 -589 0
-581 -590 0
-581 -591 0
-581 -592 0
-581 -593 0
-581 -594 0
-581 -595 0
-581 -596 0
-581 -597 0
-581 -598 0
-581 -599 0
-581 -600 0
-581 -601 0
-581 -602 0
-581 -603 0
-581 -604 0
-581 -605 0
-581 -606 0
-581 -607 0
-581 -608 0
-581 -609 0
-581 -610 0
-581 -611 0
-581 -612 0
-581 -613 0
-581 -614 0
-581 -615 0
-581 -616 0
-581 -617 0
-581 -618 0
-581 -619 0
-581 -620 0
-581 -621 0
-581 -622 0
-581 -623 0
-582 -583 0
-582 -584 0
-582 -585 0
-582 -586 0
-582 -587 0
-582 -588 0
-582 -589 0
-582 -590 0
-582 -591 0
-582 -592 0
-582 -593 0
-582 -594 0
-582 -595 0
-582 -596 0
-582 -597 0
-582 -598 0
-582 -599 0
-582 -600 0
-582 -601 0
-582 -602 0
-582 -603 0
-582 -604 0
-582 -605 0
-582 -606 0
-582 -607 0
-582 -608 0
-582 -609 0
-582 -610 0
-582 -611 0
-582 -612 0
-582 -613 0
-582 -614 0
-582 -615 0
-582 -616 0
-582 -617 0
-582 -618 0
-582 -619 0
-582 -620 0
-582 -621 0
-582 -622 0
-582 -623 0
-583 -584 0
-583 -585 0
-583 -586 0
-583 -587 0
-583 -588 0
-583 -589 0
-583 -590 0
-583 -591 0
-583 -592 0
-583 -593 0
-583 -594 0
-583 -595 0
-583 -596 0
-583 -597 0
-583 -598 0
-583 -599 0
-583 -600 0
-583 -601 0
-583 -602 0
-583 -603 0
-583 -604 0
-583 -605 0
-583 -606 0
-583 -607 0
-583 -608 0
-583 -609 0
-583 -610 0
-583 -611 0
-583 -612 0
-583 -613 0
-583 -614 0
-583 -615 0
-583 -616 0
-583 -617 0
-583 -618 0
-583 -619 0
-583 -620 0
-583 -621 0
-583 -622 0
-583 -623 0
-584 -585 0
-584 -586 0
-584 -587 0
-584 -588 0
-584 -589 0
-584 -590 0
-584 -591 0
-584 -592 0
-584 -593 0
-584 -594 0
-584 -595 0
-584 -596 0
-584 -597 0
-584 -598 0
-584 -599 0
-584 -600 0
-584 -601 0
-584 -602 0
-584 -603 0
-584 -604 0
-584 -605 0
-584 -606 0
-584 -607 0
-584 -608 0
-584 -609 0
-584 -610 0
-584 -611 0
-584 -612 0
-584 -613 0
-584 -614 0
-584 -615 0
-584 -616 0
-584 -617 0
-584 -618 0
-584 -619 0
-584 -620 0
-584 -621 0
-584 -622 0
-584 -623 0
-585 -586 0
-585 -587 0
-585 -588 0
-585 -589 0
-585 -590 0
-585 -591 0
-585 -592 0
-585 -593 0
-585 -594 0
-585 -595 0
-585 -596 0
-585 -597 0
-585 -598 0
-585 -599 0
-585 -600 0
-585 -601 0
-585 -602 0
-585 -603 0
-585 -604 0
-585 -605 0
-585 -606 0
-585 -607 0
-585 -608 0
-585 -609 0
-585 -610 0
-585 -611 0
-585 -612 0
-585 -613 0
-585 -614 0
-585 -615 0
-585 -616 0
-585 -617 0
-585 -618 0
-585 -619 0
-585 -620 0
-585 -621 0
-585 -622 0
-585 -623 0
-586 -587 0
-586 -588 0
-586 -589 0
-586 -590 0
-586 -591 0
-586 -592 0
-586 -593 0
-586 -594 0
-586 -595 0
-586 -596 0
-586 -597 0
-586 -598 0
-586 -599 0
-586 -600 0
-586 -601 0
-586 -602 0
-586 -603 0
-586 -604 0
-586 -605 0
-586 -606 0
-586 -607 0
-586 -608 0
-586 -609 0
-586 -610 0
-586 -611 0
-586 -612 0
-586 -613 0
-586 -614 0
-586 -615 0
-586 -616 0
-586 -617 0
-586 -618 0
-586 -619 0
-586 -620 0
-586 -621 0
-586 -622 0
-586 -623 0
-587 -588 0
-587 -589 0
-587 -590 0
-587 -591 0
-587 -592 0
-587 -593 0
-587 -594 0
-587 -595 0
-587 -596 0
-587 -597 0
-587 -598 0
-587 -599 0
-587 -600 0
-587 -601 0
-587 -602 0
-587 -603 0
-587 -604 0
-587 -605 0
-587 -606 0
-587 -607 0
-587 -608 0
-587 -609 0
-587 -610 0
-587 -611 0
-587 -612 0
-587 -613 0
-587 -614 0
-587 -615 0
-587 -616 0
-587 -617 0
-587 -618 0
-587 -619 0
-587 -620 0
-587 -621 0
-587 -622 0
-587 -623 0
-588 -589 0
-588 -590 0
-588 -591 0
-588 -592 0
-588 -593 0
-588 -594 0
-588 -595 0
-588 -596 0
-588 -597 0
-588 -598 0
-588 -599 0
-588 -600 0
-588 -601 0
-588 -602 0
-588 -603 0
-588 -604 0
-588 -605 0
-588 -606 0
-588 -607 0
-588 -608 0
-588 -609 0
-588 -610 0
-588 -611 0
-588 -612 0
-588 -613 0
-588 -614 0
-588 -615 0
-588 -616 0
-588 -617 0
-588 -618 0
-588 -619 0
-588 -620 0
-588 -621 0
-588 -622 0
-588 -623 0
-589 -590 0
-589 -591 0
-589 -592 0
-589 -593 0
-589 -594 0
-589 -595 0
-589 -596 0
-589 -597 0
-589 -598 0
-589 -599 0
-589 -600 0
-589 -601 0
-589 -602 0
-589 -603 0
-589 -604 0
-589 -605 0
-589 -606 0
-589 -607 0
-589 -608 0
-589 -609 0
-589 -610 0
-589 -611 0
-589 -612 0
-589 -613 0
-589 -614 0
-589 -615 0
-589 -616 0
-589 -617 0
-589 -618 0
-589 -619 0
-589 -620 0
-589 -621 0
-589 -622 0
-589 -623 0
-590 -591 0
-590 -592 0
-590 -593 0
-590 -594 0
-590 -595 0
-590 -596 0
-590 -597 0
-590 -598 0
-590 -599 0
-590 -600 0
-590 -601 0
-590 -602 0
-590 -603 0
-590 -604 0
-590 -605 0
-590 -606 0
-590 -607 0
-590 -608 0
-590 -609 0
-590 -610 0
-590 -611 0
-590 -612 0
-590 -613 0
-590 -614 0
-590 -615 0
-590 -616 0
-590 -617 0
-590 -618 0
-590 -619 0
-590 -620 0
-590 -621 0
-590 -622 0
-590 -623 0
-591 -592 0
-591 -593 0
-591 -594 0
-591 -595 0
-591 -596 0
-591 -597 0
-591 -598 0
-591 -599 0
-591 -600 0
-591 -601 0
-591 -602 0
-591 -603 0
-591 -604 0
-591 -605 0
-591 -606 0
-591 -607 0
-591 -608 0
-591 -609 0
-591 -610 0
-591 -611 0
-591 -612 0
-591 -613 0
-591 -614 0
-591 -615 0
-591 -616 0
-591 -617 0
-591 -618 0
-591 -619 0
-591 -620 0
-591 -621 0
-591 -622 0
-591 -623 0
-592 -593 0
-592 -594 0
-592 -595 0
-592 -596 0
-592 -597 0
-592 -598 0
-592 -599 0
-592 -600 0
-592 -601 0
-592 -602 0
-592 -603 0
-592 -604 0
-592 -605 0
-592 -606 0
-592 -607 0
-592 -608 0
-592 -609 0
-592 -610 0
-592 -611 0
-592 -612 0
-592 -613 0
-592 -614 0
-592 -615 0
-592 -616 0
-592 -617 0
-592 -618 0
-592 -619 0
-592 -620 0
-592 -621 0
-592 -622 0
-592 -623 0
-593 -594 0
-593 -595 0
-593 -596 0
-593 -597 0
-593 -598 0
-593 -599 0
-593 -600 0
-593 -601 0
-593 -602 0
-593 -603 0
-593 -604 0
-593 -605 0
-593 -606 0
-593 -607 0
-593 -608 0
-593 -609 0
-593 -610 0
-593 -611 0
-593 -612 0
-593 -613 0
-593 -614 0
-593 -615 0
-593 -616 0
-593 -617 0
-593 -618 0
-593 -619 0
-593 -620 0
-593 -621 0
-593 -622 0
-593 -623 0
-594 -595 0
-594 -596 0
-594 -597 0
-594 -598 0
-594 -599 0
-594 -600 0
-594 -601 0
-594 -602 0
-594 -603 0
-594 -604 0
-594 -605 0
-594 -606 0
-594 -607 0
-594 -608 0
-594 -609 0
-594 -610 0
-594 -611 0
-594 -612 0
-594 -613 0
-594 -614 0
-594 -615 0
-594 -616 0
-594 -617 0
-594 -618 0
-594 -619 0
-594 -620 0
-594 -621 0
-594 -622 0
-594 -623 0
-595 -596 0
-595 -597 0
-595 -598 0
-595 -599 0
-595 -600 0
-595 -601 0
-595 -602 0
-595 -603 0
-595 -604 0
-595 -605 0
-595 -606 0
-595 -607 0
-595 -608 0
-595 -609 0
-595 -610 0
-595 -611 0
-595 -612 0
-595 -613 0
-595 -614 0
-595 -615 0
-595 -616 0
-595 -617 0
-595 -618 0
-595 -619 0
-595 -620 0
-595 -621 0
-595 -622 0
-595 -623 0
-596 -597 0
-596 -598 0
-596 -599 0
-596 -600 0
-596 -601 0
-596 -602 0
-596 -603 0
-596 -604 0
-596 -605 0
-596 -606 0
-596 -607 0
-596 -608 0
-596 -609 0
-596 -610 0
-596 -611 0
-596 -612 0
-596 -613 0
-596 -614 0
-596 -615 0
-596 -616 0
-596 -617 0
-596 -618 0
-596 -619 0
-596 -620 0
-596 -621 0
-596 -622 0
-596 -623 0
-597 -598 0
-597 -599 0
-597 -600 0
-597 -601 0
-597 -602 0
-597 -603 0
-597 -604 0
-597 -605 0
-597 -606 0
-597 -607 0
-597 -608 0
-597 -609 0
-597 -610 0
-597 -611 0
-597 -612 0
-597 -613 0
-597 -614 0
-597 -615 0
-597 -616 0
-597 -617 0
-597 -618 0
-597 -619 0
-597 -620 0
-597 -621 0
-597 -622 0
-597 -623 0
-598 -599 0
-598 -600 0
-598 -601 0
-598 -602 0
-598 -603 0
-598 -604 0
-598 -605 0
-598 -606 0
-598 -607 0
-598 -608 0
-598 -609 0
-598 -610 0
-598 -611 0
-598 -612 0
-598 -613 0
-598 -614 0
-598 -615 0
-598 -616 0
-598 -617 0
-598 -618 0
-598 -619 0
-598 -620 0
-598 -621 0
-598 -622 0
-598 -623 0
-599 -600 0
-599 -601 0
-599 -602 0
-599 -603 0
-599 -604 0
-599 -605 0
-599 -606 0
-599 -607 0
-599 -608 0
-599 -609 0
-599 -610 0
-599 -611 0
-599 -612 0
-599 -613 0
-599 -614 0
-599 -615 0
-599 -616 0
-599 -617 0
-599 -618 0
-599 -619 0
-599 -620 0
-599 -621 0
-599 -622 0
-599 -623 0
-600 -601 0
-600 -602 0
-600 -603 0
-600 -604 0
-600 -605 0
-600 -606 0
-600 -607 0
-600 -608 0
-600 -609 0
-600 -610 0
-600 -611 0
-600 -612 0
-600 -613 0
-600 -614 0
-600 -615 0
-600 -616 0
-600 -617 0
-600 -618 0
-600 -619 0
-600 -620 0
-600 -621 0
-600 -622 0
-600 -623 0
-601 -602 0
-601 -603 0
-601 -604 0
-601 -605 0
-601 -606 0
-601 -607 0
-601 -608 0
-601 -609 0
-601 -610 0
-601 -611 0
-601 -612 0
-601 -613 0
-601 -614 0
-601 -615 0
-601 -616 0
-601 -617 0
-601 -618 0
-601 -619 0
-601 -620 0
-601 -621 0
-601 -622 0
-601 -623 0
-602 -603 0
-602 -604 0
-602 -605 0
-602 -606 0
-602 -607 0
-602 -608 0
-602 -609 0
-602 -610 0
-602 -611 0
-602 -612 0
-602 -613 0
-602 -614 0
-602 -615 0
-602 -616 0
-602 -617 0
-602 -618 0
-602 -619 0
-602 -620 0
-602 -621 0
-602 -622 0
-602 -623 0
-603 -604 0
-603 -605 0
-603 -606 0
-603 -607 0
-603 -608 0
-603 -609 0
-603 -610 0
-603 -611 0
-603 -612 0
-603 -613 0
-603 -614 0
-603 -615 0
-603 -616 0
-603 -617 0
-603 -618 0
-603 -619 0
-603 -620 0
-603 -621 0
-603 -622 0
-603 -623 0
-604 -605 0
-604 -606 0
-604 -607 0
-604 -608 0
-604 -609 0
-604 -610 0
-604 -611 0
-604 -612 0
-604 -613 0
-604 -614 0
-604 -615 0
-604 -616 0
-604 -617 0
-604 -618 0
-604 -619 0
-604 -620 0
-604 -621 0
-604 -622 0
-604 -623 0
-605 -606 0
-605 -607 0
-605 -608 0
-605 -609 0
-605 -610 0
-605 -611 0
-605 -612 0
-605 -613 0
-605 -614 0
-605 -615 0
-605 -616 0
-605 -617 0
-605 -618 0
-605 -619 0
-605 -620 0
-605 -621 0
-605 -622 0
-605 -623 0
-606 -607 0
-606 -608 0
-606 -609 0
-606 -610 0
-606 -611 0
-606 -612 0
-606 -613 0
-606 -614 0
-606 -615 0
-606 -616 0
-606 -617 0
-606 -618 0
-606 -619 0
-606 -620 0
-606 -621 0
-606 -622 0
-606 -623 0
-607 -608 0
-607 -609 0
-607 -610 0
-607 -611 0
-607 -612 0
-607 -613 0
-607 -614 0
-607 -615 0
-607 -616 0
-607 -617 0
-607 -618 0
-607 -619 0
-607 -620 0
-607 -621 0
-607 -622 0
-607 -623 0
-608 -609 0
-608 -610 0
-608 -611 0
-608 -612 0
-608 -613 0
-608 -614 0
-608 -615 0
-608 -616 0
-608 -617 0
-608 -618 0
-608 -619 0
-608 -620 0
-608 -621 0
-608 -622 0
-608 -623 0
-609 -610 0
-609 -611 0
-609 -612 0
-609 -613 0
-609 -614 0
-609 -615 0
-609 -616 0
-609 -617 0
-609 -618 0
-609 -619 0
-609 -620 0
-609 -621 0
-609 -622 0
-609 -623 0
-610 -611 0
-610 -612 0
-610 -613 0
-610 -614 0
-610 -615 0
-610 -616 0
-610 -617 0
-610 -618 0
-610 -619 0
-610 -620 0
-610 -621 0
-610 -622 0
-610 -623 0
-611 -612 0
-611 -613 0
-611 -614 0
-611 -615 0
-611 -616 0
-611 -617 0
-611 -618 0
-611 -619 0
-611 -620 0
-611 -621 0
-611 -622 0
-611 -623 0
-612 -613 0
-612 -614 0
-612 -615 0
-612 -616 0
-612 -617 0
-612 -618 0
-612 -619 0
-612 -620 0
-612 -621 0
-612 -622 0
-612 -623 0
-613 -614 0
-613 -615 0
-613 -616 0
-613 -617 0
-613 -618 0
-613 -619 0
-613 -620 0
-613 -621 0
-613 -622 0
-613 -623 0
-614 -615 0
-614 -616 0
-614 -617 0
-614 -618 0
-614 -619 0
-614 -620 0
-614 -621 0
-614 -622 0
-614 -623 0
-615 -616 0
-615 -617 0
-615 -618 0
-615 -619 0
-615 -620 0
-615 -621 0
-615 -622 0
-615 -623 0
-616 -617 0
-616 -618 0
-616 -619 0
-616 -620 0
-616 -621 0
-616 -622 0
-616 -623 0
-617 -618 0
-617 -619 0
-617 -620 0
-617 -621 0
-617 -622 0
-617 -623 0
-618 -619 0
-618 -620 0
-618 -621 0
-618 -622 0
-618 -623 0
-619 -620 0
-619 -621 0
-619 -622 0
-619 -623 0
-620 -621 0
-620 -622 0
-620 -623 0
-621 -622 0
-621 -623 0
-622 -623 0
624 625 626 627 628 629 630 631 632 633 634 635 636 637 638 639 640 641 642 643 644 645 646 647 648 649 650 651 652 653 654 655 656 657 658 659 660 661 662 663 664 665 666 667 668 669 670 671 672 673 674 675 676 677 678 679 680 681 682 683 684 685 686 687 688 689 690 691 692 693 694 695 696 697 698 699 700 701 702 703 704 705 706 707 0
-624 -625 0
-624 -626 0
-624 -627 0
-624 -628 0
-624 -629 0
-624 -630 0
-624 -631 0
-624 -632 0
-624 -633 0
-624 -634 0
-624 -635 0
-624 -636 0
-624 -637 0
-624 -638 0
-624 -639 0
-624 -640 0
-624 -641 0
-624 -642 0
-624 -643 0
-624 -644 0
-624 -645 0
-624 -646 0
-624 -647 0
-624 -648 0
-624 -649 0
-624 -650 0
-624 -651 0
-624 -652 0
-624 -653 0
-624 -654 0
-624 -655 0
-624 -656 0
-624 -657 0
-624 -658 0
-624 -659 0
-624 -660 0
-624 -661 0
-624 -662 0
-624 -663 0
-624 -664 0
-624 -665 0
-624 -666 0
-624 -667 0
-624 -668 0
-624 -669 0
-624 -670 0
-624 -671 0
-624 -672 0
-624 -673 0
-624 -674 0
-624 -675 0
-624 -676 0
-624 -677 0
-624 -678 0
-624 -679 0
-624 -680 0
-624 -681 0
-624 -682 0
-624 -683 0
-624 -684 0
-624 -685 0
-624 -686 0
-624 -687 0
-624 -688 0
-624 -689 0
-624 -690 0
-624 -691 0
-624 -692 0
-624 -693 0
-624 -694 0
-624 -695 0
-624 -696 0
-624 -697 0
-624 -698 0
-624 -699 0
-624 -700 0
-624 -701 0
-624 -702 0
-624 -703 0
-624 -704 0
-624 -705 0
-624 -706 0
-624 -707 0
-625 -626 0
-625 -627 0
-625 -628 0
-625 -629 0
-625 -630 0
-625 -631 0
-625 -632 0
-625 -633 0
-625 -634 0
-625 -635 0
-625 -636 0
-625 -637 0
-625 -638 0
-625 -639 0
-625 -640 0
-625 -641 0
-625 -642 0
-625 -643 0
-625 -644 0
-625 -645 0
-625 -646 0
-625 -647 0
-625 -648 0
-625 -649 0
-625 -650 0
-625 -651 0
-625 -652 0
-625 -653 0
-625 -654 0
-625 -655 0
-625 -656 0
-625 -657 0
-625 -658 0
-625 -659 0
-625 -660 0
-625 -661 0
-625 -662 0
-625 -663 0
-625 -664 0
-625 -665 0
-625 -666 0
-625 -667 0
-625 -668 0
-625 -669 0
-625 -670 0
-625 -671 0
-625 -672 0
-625 -673 0
-625 -674 0
-625 -675 0
-625 -676 0
-625 -677 0
-625 -678 0
-625 -679 0
-625 -680 0
-625 -681 0
-625 -682 0
-625 -683 0
-625 -684 0
-625 -685 0
-625 -686 0
-625 -687 0
-625 -688 0
-625 -689 0
-625 -690 0
-625 -691 0
-625 -692 0
-625 -693 0
-625 -694 0
-625 -695 0
-625 -696 0
-625 -697 0
-625 -698 0
-625 -699 0
-625 -700 0
-625 -701 0
-625 -702 0
-625 -703 0
-625 -704 0
-625 -705 0
-625 -706 0
-625 -707 0
-626 -627 0
-626 -628 0
-626 -629 0
-626 -630 0
-626 -631 0
-626 -632 0
-626 -633 0
-626 -634 0
-626 -635 0
-626 -636 0
-626 -637 0
-626 -638 0
-626 -639 0
-626 -640 0
-626 -641 0
-626 -642 0
-626 -643 0
-626 -644 0
-626 -645 0
-626 -646 0
-626 -647 0
-626 -648 0
-626 -649 0
-626 -650 0
-626 -651 0
-626 -652 0
-626 -653 0
-626 -654 0
-626 -655 0
-626 -656 0
-626 -657 0
-626 -658 0
-626 -659 0
-626 -660 0
-626 -661 0
-626 -662 0
-626 -663 0
-626 -664 0
-626 -665 0
-626 -666 0
-626 -667 0
-626 -668 0
-626 -669 0
-626 -670 0
-626 -671 0
-626 -672 0
-626 -673 0
-626 -674 0
-626 -675 0
-626 -676 0
-626 -677 0
-626 -678 0
-626 -679 0
-626 -680 0
-626 -681 0
-626 -682 0
-626 -683 0
-626 -684 0
-626 -685 0
-626 -686 0
-626 -687 0
-626 -688 0
-626 -689 0
-626 -690 0
-626 -691 0
-626 -692 0
-626 -693 0
-626 -694 0
-626 -695 0
-626 -696 0
-626 -697 0
-626 -698 0
-626 -699 0
-626 -700 0
-626 -701 0
-626 -702 0
-626 -703 0
-626 -704 0
-626 -705 0
-626 -706 0
-626 -707 0
-627 -628 0
-627 -629 0
-627 -630 0
-627 -631 0
-627 -632 0
-627 -633 0
-627 -634 0
-627 -635 0
-627 -636 0
-627 -637 0
-627 -638 0
-627 -639 0
-627 -640 0
-627 -641 0
-627 -642 0
-627 -643 0
-627 -644 0
-627 -645 0
-627 -646 0
-627 -647 0
-627 -648 0
-627 -649 0
-627 -650 0
-627 -651 0
-627 -652 0
-627 -653 0
-627 -654 0
-627 -655 0
-627 -656 0
-627 -657 0
-627 -658 0
-627 -659 0
-627 -660 0
-627 -661 0
-627 -662 0
-627 -663 0
-627 -664 0
-627 -665 0
-627 -666 0
-627 -667 0
-627 -668 0
-627 -669 0
-627 -670 0
-627 -671 0
-627 -672 0
-627 -673 0
-627 -674 0
-627 -675 0
-627 -676 0
-627 -677 0
-627 -678 0
-627 -679 0
-627 -680 0
-627 -681 0
-627 -682 0
-627 -683 0
-627 -684 0
-627 -685 0
-627 -686 0
-627 -687 0
-627 -688 0
-627 -689 0
-627 -690 0
-627 -691 0
-627 -692 0
-627 -693 0
-627 -694 0
-627 -695 0
-627 -696 0
-627 -697 0
-627 -698 0
-627 -699 0
-627 -700 0
-627 -701 0
-627 -702 0
-627 -703 0
-627 -704 0
-627 -705 0
-627 -706 0
-627 -707 0
-628 -629 0
-628 -630 0
-628 -631 0
-628 -632 0
-628 -633 0
-628 -634 0
-628 -635 0
-628 -636 0
-628 -637 0
-628 -638 0
-628 -639 0
-628 -640 0
-628 -641 0
-628 -642 0
-628 -643 0
-628 -644 0
-628 -645 0
-628 -646 0
-628 -647 0
-628 -648 0
-628 -649 0
-628 -650 0
-628 -651 0
-628 -652 0
-628 -653 0
-628 -654 0
-628 -655 0
-628 -656 0
-628 -657 0
-628 -658 0
-628 -659 0
-628 -660 0
-628 -661 0
-628 -662 0
-628 -663 0
-628 -664 0
-628 -665 0
-628 -666 0
-628 -667 0
-628 -668 0
-628 -669 0
-628 -670 0
-628 -671 0
-628 -672 0
-628 -673 0
-628 -674 0
-628 -675 0
-628 -676 0
-628 -677 0
-628 -678 0
-628 -679 0
-628 -680 0
-628 -681 0
-628 -682 0
-628 -683 0
-628 -684 0
-628 -685 0
-628 -686 0
-628 -687 0
-628 -688 0
-628 -689 0
-628 -690 0
-628 -691 0
-628 -692 0
-628 -693 0
-628 -694 0
-628 -695 0
-628 -696 0
-628 -697 0
-628 -698 0
-628 -699 0
-628 -700 0
-628 -701 0
-628 -702 0
-628 -703 0
-628 -704 0
-628 -705 0
-628 -706 0
-628 -707 0
-629 -630 0
-629 -631 0
-629 -632 0
-629 -633 0
-629 -634 0
-629 -635 0
-629 -636 0
-629 -637 0
-629 -638 0
-629 -639 0
-629 -640 0
-629 -641 0
-629 -642 0
-629 -643 0
-629 -644 0
-629 -645 0
-629 -646 0
-629 -647 0
-629 -648 0
-629 -649 0
-629 -650 0
-629 -651 0
-629 -652 0
-629 -653 0
-629 -654 0
-629 -655 0
-629 -656 0
-629 -657 0
-629 -658 0
-629 -659 0
-629 -660 0
-629 -661 0
-629 -662 0
-629 -663 0
-629 -664 0
-629 -665 0
-629 -666 0
-629 -667 0
-629 -668 0
-629 -669 0
-629 -670 0
-629 -671 0
-629 -672 0
-629 -673 0
-629 -674 0
-629 -675 0
-629 -676 0
-629 -677 0
-629 -678 0
-629 -679 0
-629 -680 0
-629 -681 0
-629 -682 0
-629 -683 0
-629 -684 0
-629 -685 0
-629 -686 0
-629 -687 0
-629 -688 0
-629 -689 0
-629 -690 0
-629 -691 0
-629 -692 0
-629 -693 0
-629 -694 0
-629 -695 0
-629 -696 0
-629 -697 0
-629 -698 0
-629 -699 0
-629 -700 0
-629 -701 0
-629 -702 0
-629 -703 0
-629 -704 0
-629 -705 0
-629 -706 0
-629 -707 0
-630 -631 0
-630 -632 0
-630 -633 0
-630 -634 0
-630 -635 0
-630 -636 0
-630 -637 0
-630 -638 0
-630 -639 0
-630 -640 0
-630 -641 0
-630 -642 0
-630 -643 0
-630 -644 0
-630 -645 0
-630 -646 0
-630 -647 0
-630 -648 0
-630 -649 0
-630 -650 0
-630 -651 0
-630 -652 0
-630 -653 0
-630 -654 0
-630 -655 0
-630 -656 0
-630 -657 0
-630 -658 0
-630 -659 0
-630 -660 0
-630 -661 0
-630 -662 0
-630 -663 0
-630 -664 0
-630 -665 0
-630 -666 0
-630 -667 0
-630 -668 0
-630 -669 0
-630 -670 0
-630 -671 0
-630 -672 0
-630 -673 0
-630 -674 0
-630 -675 0
-630 -676 0
-630 -677 0
-630 -678 0
-630 -679 0
-630 -680 0
-630 -681 0
-630 -682 0
-630 -683 0
-630 -684 0
-630 -685 0
-630 -686 0
-630 -687 0
-630 -688 0
-630 -689 0
-630 -690 0
-630 -691 0
-630 -692 0
-630 -693 0
-630 -694 0
-630 -695 0
-630 -696 0
-630 -697 0
-630 -698 0
-630 -699 0
-630 -700 0
-630 -701 0
-630 -702 0
-630 -703 0
-630 -704 0
-630 -705 0
-630 -706 0
-630 -707 0
-631 -632 0
-631 -633 0
-631 -634 0
-631 -635 0
-631 -636 0
-631 -637 0
-631 -638 0
-631 -639 0
-631 -640 0
-631 -641 0
-631 -642 0
-631 -643 0
-631 -644 0
-631 -645 0
-631 -646 0
-631 -647 0
-631 -648 0
-631 -649 0
-631 -650 0
-631 -651 0
-631 -652 0
-631 -653 0
-631 -654 0
-631 -655 0
-631 -656 0
-631 -657 0
-631 -658 0
-631 -659 0
-631 -660 0
-631 -661 0
-631 -662 0
-631 -663 0
-631 -664 0
-631 -665 0
-631 -666 0
-631 -667 0
-631 -668 0
-631 -669 0
-631 -670 0
-631 -671 0
-631 -672 0
-631 -673 0
-631 -674 0
-631 -675 0
-631 -676 0
-631 -677 0
-631 -678 0
-631 -679 0
-631 -680 0
-631 -681 0
-631 -682 0
-631 -683 0
-631 -684 0
-631 -685 0
-631 -686 0
-631 -687 0
-631 -688 0
-631 -689 0
-631 -690 0
-631 -691 0
-631 -692 0
-631 -693 0
-631 -694 0
-631 -695 0
-631 -696 0
-631 -697 0
-631 -698 0
-631 -699 0
-631 -700 0
-631 -701 0
-631 -702 0
-631 -703 0
-631 -704 0
-631 -705 0
-631 -706 0
-631 -707 0
-632 -633 0
-632 -634 0
-632 -635 0
-632 -636 0
-632 -637 0
-632 -638 0
-632 -639 0
-632 -640 0
-632 -641 0
-632 -642 0
-632 -643 0
-632 -644 0
-632 -645 0
-632 -646 0
-632 -647 0
-632 -648 0
-632 -649 0
-632 -650 0
-632 -651 0
-632 -652 0
-632 -653 0
-632 -654 0
-632 -655 0
-632 -656 0
-632 -657 0
-632 -658 0
-632 -659 0
-632 -660 0
-632 -661 0
-632 -662 0
-632 -663 0
-632 -664 0
-632 -665 0
-632 -666 0
-632 -667 0
-632 -668 0
-632 -669 0
-632 -670 0
-632 -671 0
-632 -672 0
-632 -673 0
-632 -674 0
-632 -675 0
-632 -676 0
-632 -677 0
-632 -678 0
-632 -679 0
-632 -680 0
-632 -681 0
-632 -682 0
-632 -683 0
-632 -684 0
-632 -685 0
-632 -686 0
-632 -687 0
-632 -688 0
-632 -689 0
-632 -690 0
-632 -691 0
-632 -692 0
-632 -693 0
-632 -694 0
-632 -695 0
-632 -696 0
-632 -697 0
-632 -698 0
-632 -699 0
-632 -700 0
-632 -701 0
-632 -702 0
-632 -703 0
-632 -704 0
-632 -705 0
-632 -706 0
-632 -707 0
-633 -634 0
-633 -635 0
-633 -636 0
-633 -637 0
-633 -638 0
-633 -639 0
-633 -640 0
-633 -641 0
-633 -642 0
-633 -643 0
-633 -644 0
-633 -645 0
-633 -646 0
-633 -647 0
-633 -648 0
-633 -649 0
-633 -650 0
-633 -651 0
-633 -652 0
-633 -653 0
-633 -654 0
-633 -655 0
-633 -656 0
-633 -657 0
-633 -658 0
-633 -659 0
-633 -660 0
-633 -661 0
-633 -662 0
-633 -663 0
-633 -664 0
-633 -665 0
-633 -666 0
-633 -667 0
-633 -668 0
-633 -669 0
-633 -670 0
-633 -671 0
-633 -672 0
-633 -673 0
-633 -674 0
-633 -675 0
-633 -676 0
-633 -677 0
-633 -678 0
-633 -679 0
-633 -680 0
-633 -681 0
-633 -682 0
-633 -683 0
-633 -684 0
-633 -685 0
-633 -686 0
-633 -687 0
-633 -688 0
-633 -689 0
-633 -690 0
-633 -691 0
-633 -692 0
-633 -693 0
-633 -694 0
-633 -695 0
-633 -696 0
-633 -697 0
-633 -698 0
-633 -699 0
-633 -700 0
-633 -701 0
-633 -702 0
-633 -703 0
-633 -704 0
-633 -705 0
-633 -706 0
-633 -707 0
-634 -635 0
-634 -636 0
-634 -637 0
-634 -638 0
-634 -639 0
-634 -640 0
-634 -641 0
-634 -642 0
-634 -643 0
-634 -644 0
-634 -645 0
-634 -646 0
-634 -647 0
-634 -648 0
-634 -649 0
-634 -650 0
-634 -651 0
-634 -652 0
-634 -653 0
-634 -654 0
-634 -655 0
-634 -656 0
-634 -657 0
-634 -658 0
-634 -659 0
-634 -660 0
-634 -661 0
-634 -662 0
-634 -663 0
-634 -664 0
-634 -665 0
-634 -666 0
-634 -667 0
-634 -668 0
-634 -669 0
-634 -670 0
-634 -671 0
-634 -672 0
-634 -673 0
-634 -674 0
-634 -675 0
-634 -676 0
-634 -677 0
-634 -678 0
-634 -679 0
-634 -680 0
-634 -681 0
-634 -682 0
-634 -683 0
-634 -684 0
-634 -685 0
-634 -686 0
-634 -687 0
-634 -688 0
-634 -689 0
-634 -690 0
-634 -691 0
-634 -692 0
-634 -693 0
-634 -694 0
-634 -695 0
-634 -696 0
-634 -697 0
-634 -698 0
-634 -699 0
-634 -700 0
-634 -701 0
-634 -702 0
-634 -703 0
-634 -704 0
-634 -705 0
-634 -706 0
-634 -707 0
-635 -636 0
-635 -637 0
-635 -638 0
-635 -639 0
-635 -640 0
-635 -641 0
-635 -642 0
-635 -643 0
-635 -644 0
-635 -645 0
-635 -646 0
-635 -647 0
-635 -648 0
-635 -649 0
-635 -650 0
-635 -651 0
-635 -652 0
-635 -653 0
-635 -654 0
-635 -655 0
-635 -656 0
-635 -657 0
-635 -658 0
-635 -659 0
-635 -660 0
-635 -661 0
-635 -662 0
-635 -663 0
-635 -664 0
-635 -665 0
-635 -666 0
-635 -667 0
-635 -668 0
-635 -669 0
-635 -670 0
-635 -671 0
-635 -672 0
-635 -673 0
-635 -674 0
-635 -675 0
-635 -676 0
-635 -677 0
-635 -678 0
-635 -679 0
-635 -680 0
-635 -681 0
-635 -682 0
-635 -683 0
-635 -684 0
-635 -685 0
-635 -686 0
-635 -687 0
-635 -688 0
-635 -689 0
-635 -690 0
-635 -691 0
-635 -692 0
-635 -693 0
-635 -694 0
-635 -695 0
-635 -696 0
-635 -697 0
-635 -698 0
-635 -699 0
-635 -700 0
-635 -701 0
-635 -702 0
-635 -703 0
-635 -704 0
-635 -705 0
-635 -706 0
-635 -707 0
-636 -637 0
-636 -638 0
-636 -639 0
-636 -640 0
-636 -641 0
-636 -642 0
-636 -643 0
-636 -644 0
-636 -645 0
-636 -646 0
-636 -647 0
-636 -648 0
-636 -649 0
-636 -650 0
-636 -651 0
-636 -652 0
-636 -653 0
-636 -654 0
-636 -655 0
-636 -656 0
-636 -657 0
-636 -658 0
-636 -659 0
-636 -660 0
-636 -661 0
-636 -662 0
-636 -663 0
-636 -664 0
-636 -665 0
-636 -666 0
-636 -667 0
-636 -668 0
-636 -669 0
-636 -670 0
-636 -671 0
-636 -672 0
-636 -673 0
-636 -674 0
-636 -675 0
-636 -676 0
-636 -677 0
-636 -678 0
-636 -679 0
-636 -680 0
-636 -681 0
-636 -682 0
-636 -683 0
-636 -684 0
-636 -685 0
-636 -686 0
-636 -687 0
-636 -688 0
-636 -689 0
-636 -690 0
-636 -691 0
-636 -692 0
-636 -693 0
-636 -694 0
-636 -695 0
-636 -696 0
-636 -697 0
-636 -698 0
-636 -699 0
-636 -700 0
-636 -701 0
-636 -702 0
-636 -703 0
-636 -704 0
-636 -705 0
-636 -706 0
-636 -707 0
-637 -638 0
-637 -639 0
-637 -640 0
-637 -641 0
-637 -642 0
-637 -643 0
-637 -644 0
-637 -645 0
-637 -646 0
-637 -647 0
-637 -648 0
-637 -649 0
-637 -650 0
-637 -651 0
-637 -652 0
-637 -653 0
-637 -654 0
-637 -655 0
-637 -656 0
-637 -657 0
-637 -658 0
-637 -659 0
-637 -660 0
-637 -661 0
-637 -662 0
-637 -663 0
-637 -664 0
-637 -665 0
-637 -666 0
-637 -667 0
-637 -668 0
-637 -669 0
-637 -670 0
-637 -671 0
-637 -672 0
-637 -673 0
-637 -674 0
-637 -675 0
-637 -676 0
-637 -677 0
-637 -678 0
-637 -679 0
-637 -680 0
-637 -681 0
-637 -682 0
-637 -683 0
-637 -684 0
-637 -685 0
-637 -686 0
-637 -687 0
-637 -688 0
-637 -689 0
-637 -690 0
-637 -691 0
-637 -692 0
-637 -693 0
-637 -694 0
-637 -695 0
-637 -696 0
-637 -697 0
-637 -698 0
-637 -699 0
-637 -700 0
-637 -701 0
-637 -702 0
-637 -703 0
-637 -704 0
-637 -705 0
-637 -706 0
-637 -707 0
-638 -639 0
-638 -640 0
-638 -641 0
-638 -642 0
-638 -643 0
-638 -644 0
-638 -645 0
-638 -646 0
-638 -647 0
-638 -648 0
-638 -649 0
-638 -650 0
-638 -651 0
-638 -652 0
-638 -653 0
-638 -654 0
-638 -655 0
-638 -656 0
-638 -657 0
-638 -658 0
-638 -659 0
-638 -660 0
-638 -661 0
-638 -662 0
-638 -663 0
-638 -664 0
-638 -665 0
-638 -666 0
-638 -667 0
-638 -668 0
-638 -669 0
-638 -670 0
-638 -671 0
-638 -672 0
-638 -673 0
-638 -674 0
-638 -675 0
-638 -676 0
-638 -677 0
-638 -678 0
-638 -679 0
-638 -680 0
-638 -681 0
-638 -682 0
-638 -683 0
-638 -684 0
-638 -685 0
-638 -686 0
-638 -687 0
-638 -688 0
-638 -689 0
-638 -690 0
-638 -691 0
-638 -692 0
-638 -693 0
-638 -694 0
-638 -695 0
-638 -696 0
-638 -697 0
-638 -698 0
-638 -699 0
-638 -700 0
-638 -701 0
-638 -702 0
-638 -703 0
-638 -704 0
-638 -705 0
-638 -706 0
-638 -707 0
-639 -640 0
-639 -641 0
-639 -642 0
-639 -643 0
-639 -644 0
-639 -645 0
-639 -646 0
-639 -647 0
-639 -648 0
-639 -649 0
-639 -650 0
-639 -651 0
-639 -652 0
-639 -653 0
-639 -654 0
-639 -655 0
-639 -656 0
-639 -657 0
-639 -658 0
-639 -659 0
-639 -660 0
-639 -661 0
-639 -662 0
-639 -663 0
-639 -664 0
-639 -665 0
-639 -666 0
-639 -667 0
-639 -668 0
-639 -669 0
-639 -670 0
-639 -671 0
-639 -672 0
-639 -673 0
-639 -674 0
-639 -675 0
-639 -676 0
-639 -677 0
-639 -678 0
-639 -679 0
-639 -680 0
-639 -681 0
-639 -682 0
-639 -683 0
-639 -684 0
-639 -685 0
-639 -686 0
-639 -687 0
-639 -688 0
-639 -689 0
-639 -690 0
-639 -691 0
-639 -692 0
-639 -693 0
-639 -694 0
-639 -695 0
-639 -696 0
-639 -697 0
-639 -698 0
-639 -699 0
-639 -700 0
-639 -701 0
-639 -702 0
-639 -703 0
-639 -704 0
-639 -705 0
-639 -706 0
-639 -707 0
-640 -641 0
-640 -642 0
-640 -643 0
-640 -644 0
-640 -645 0
-640 -646 0
-640 -647 0
-640 -648 0
-640 -649 0
-640 -650 0
-640 -651 0
-640 -652 0
-640 -653 0
-640 -654 0
-640 -655 0
-640 -656 0
-640 -657 0
-640 -658 0
-640 -659 0
-640 -660 0
-640 -661 0
-640 -662 0
-640 -663 0
-640 -664 0
-640 -665 0
-640 -666 0
-640 -667 0
-640 -668 0
-640 -669 0
-640 -670 0
-640 -671 0
-640 -672 0
-640 -673 0
-640 -674 0
-640 -675 0
-640 -676 0
-640 -677 0
-640 -678 0
-640 -679 0
-640 -680 0
-640 -681 0
-640 -682 0
-640 -683 0
-640 -684 0
-640 -685 0
-640 -686 0
-640 -687 0
-640 -688 0
-640 -689 0
-640 -690 0
-640 -691 0
-640 -692 0
-640 -693 0
-640 -694 0
-640 -695 0
-640 -696 0
-640 -697 0
-640 -698 0
-640 -699 0
-640 -700 0
-640 -701 0
-640 -702 0
-640 -703 0
-640 -704 0
-640 -705 0
-640 -706 0
-640 -707 0
-641 -642 0
-641 -643 0
-641 -644 0
-641 -645 0
-641 -646 0
-641 -647 0
-641 -648 0
-641 -649 0
-641 -650 0
-641 -651 0
-641 -652 0
-641 -653 0
-641 -654 0
-641 -655 0
-641 -656 0
-641 -657 0
-641 -658 0
-641 -659 0
-641 -660 0
-641 -661 0
-641 -662 0
-641 -663 0
-641 -664 0
-641 -665 0
-641 -666 0
-641 -667 0
-641 -668 0
-641 -669 0
-641 -670 0
-641 -671 0
-641 -672 0
-641 -673 0
-641 -674 0
-641 -675 0
-641 -676 0
-641 -677 0
-641 -678 0
-641 -679 0
-641 -680 0
-641 -681 0
-641 -682 0
-641 -683 0
-641 -684 0
-641 -685 0
-641 -686 0
-641 -687 0
-641 -688 0
-641 -689 0
-641 -690 0
-641 -691 0
-641 -692 0
-641 -693 0
-641 -694 0
-641 -695 0
-641 -696 0
-641 -697 0
-641 -698 0
-641 -699 0
-641 -700 0
-641 -701 0
-641 -702 0
-641 -703 0
-641 -704 0
-641 -705 0
-641 -706 0
-641 -707 0
-642 -643 0
-642 -644 0
-642 -645 0
-642 -646 0
-642 -647 0
-642 -648 0
-642 -649 0
-642 -650 0
-642 -651 0
-642 -652 0
-642 -653 0
-642 -654 0
-642 -655 0
-642 -656 0
-642 -657 0
-642 -658 0
-642 -659 0
-642 -660 0
-642 -661 0
-642 -662 0
-642 -663 0
-642 -664 0
-642 -665 0
-642 -666 0
-642 -667 0
-642 -668 0
-642 -669 0
-642 -670 0
-642 -671 0
-642 -672 0
-642 -673 0
-642 -674 0
-642 -675 0
-642 -676 0
-642 -677 0
-642 -678 0
-642 -679 0
-642 -680 0
-642 -681 0
-642 -682 0
-642 -683 0
-642 -684 0
-642 -685 0
-642 -686 0
-642 -687 0
-642 -688 0
-642 -689 0
-642 -690 0
-642 -691 0
-642 -692 0
-642 -693 0
-642 -694 0
-642 -695 0
-642 -696 0
-642 -697 0
-642 -698 0
-642 -699 0
-642 -700 0
-642 -701 0
-642 -702 0
-642 -703 0
-642 -704 0
-642 -705 0
-642 -706 0
-642 -707 0
-643 -644 0
-643 -645 0
-643 -646 0
-643 -647 0
-643 -648 0
-643 -649 0
-643 -650 0
-643 -651 0
-643 -652 0
-643 -653 0
-643 -654 0
-643 -655 0
-643 -656 0
-643 -657 0
-643 -658 0
-643 -659 0
-643 -660 0
-643 -661 0
-643 -662 0
-643 -663 0
-643 -664 0
-643 -665 0
-643 -666 0
-643 -667 0
-643 -668 0
-643 -669 0
-643 -670 0
-643 -671 0
-643 -672 0
-643 -673 0
-643 -674 0
-643 -675 0
-643 -676 0
-643 -677 0
-643 -678 0
-643 -679 0
-643 -680 0
-643 -681 0
-643 -682 0
-643 -683 0
-643 -684 0
-643 -685 0
-643 -686 0
-643 -687 0
-643 -688 0
-643 -689 0
-643 -690 0
-643 -691 0
-643 -692 0
-643 -693 0
-643 -694 0
-643 -695 0
-643 -696 0
-643 -697 0
-643 -698 0
-643 -699 0
-643 -700 0
-643 -701 0
-643 -702 0
-643 -703 0
-643 -704 0
-643 -705 0
-643 -706 0
-643 -707 0
-644 -645 0
-644 -646 0
-644 -647 0
-644 -648 0
-644 -649 0
-644 -650 0
-644 -651 0
-644 -652 0
-644 -653 0
-644 -654 0
-644 -655 0
-644 -656 0
-644 -657 0
-644 -658 0
-644 -659 0
-644 -660 0
-644 -661 0
-644 -662 0
-644 -663 0
-644 -664 0
-644 -665 0
-644 -666 0
-644 -667 0
-644 -668 0
-644 -669 0
-644 -670 0
-644 -671 0
-644 -672 0
-644 -673 0
-644 -674 0
-644 -675 0
-644 -676 0
-644 -677 0
-644 -678 0
-644 -679 0
-644 -680 0
-644 -681 0
-644 -682 0
-644 -683 0
-644 -684 0
-644 -685 0
-644 -686 0
-644 -687 0
-644 -688 0
-644 -689 0
-644 -690 0
-644 -691 0
-644 -692 0
-644 -693 0
-644 -694 0
-644 -695 0
-644 -696 0
-644 -697 0
-644 -698 0
-644 -699 0
-644 -700 0
-644 -701 0
-644 -702 0
-644 -703 0
-644 -704 0
-644 -705 0
-644 -706 0
-644 -707 0
-645 -646 0
-645 -647 0
-645 -648 0
-645 -649 0
-645 -650 0
-645 -651 0
-645 -652 0
-645 -653 0
-645 -654 0
-645 -655 0
-645 -656 0
-645 -657 0
-645 -658 0
-645 -659 0
-645 -660 0
-645 -661 0
-645 -662 0
-645 -663 0
-645 -664 0
-645 -665 0
-645 -666 0
-645 -667 0
-645 -668 0
-645 -669 0
-645 -670 0
-645 -671 0
-645 -672 0
-645 -673 0
-645 -674 0
-645 -675 0
-645 -676 0
-645 -677 0
-645 -678 0
-645 -679 0
-645 -680 0
-645 -681 0
-645 -682 0
-645 -683 0
-645 -684 0
-645 -685 0
-645 -686 0
-645 -687 0
-645 -688 0
-645 -689 0
-645 -690 0
-645 -691 0
-645 -692 0
-645 -693 0
-645 -694 0
-645 -695 0
-645 -696 0
-645 -697 0
-645 -698 0
-645 -699 0
-645 -700 0
-645 -701 0
-645 -702 0
-645 -703 0
-645 -704 0
-645 -705 0
-645 -706 0
-645 -707 0
-646 -647 0
-646 -648 0
-646 -649 0
-646 -650 0
-646 -651 0
-646 -652 0
-646 -653 0
-646 -654 0
-646 -655 0
-646 -656 0
-646 -657 0
-646 -658 0
-646 -659 0
-646 -660 0
-646 -661 0
-646 -662 0
-646 -663 0
-646 -664 0
-646 -665 0
-646 -666 0
-646 -667 0
-646 -668 0
-646 -669 0
-646 -670 0
-646 -671 0
-646 -672 0
-646 -673 0
-646 -674 0
-646 -675 0
-646 -676 0
-646 -677 0
-646 -678 0
-646 -679 0
-646 -680 0
-646 -681 0
-646 -682 0
-646 -683 0
-646 -684 0
-646 -685 0
-646 -686 0
-646 -687 0
-646 -688 0
-646 -689 0
-646 -690 0
-646 -691 0
-646 -692 0
-646 -693 0
-646 -694 0
-646 -695 0
-646 -696 0
-646 -697 0
-646 -698 0
-646 -699 0
-646 -700 0
-646 -701 0
-646 -702 0
-646 -703 0
-646 -704 0
-646 -705 0
-646 -706 0
-646 -707 0
-647 -648 0
-647 -649 0
-647 -650 0
-647 -651 0
-647 -652 0
-647 -653 0
-647 -654 0
-647 -655 0
-647 -656 0
-647 -657 0
-647 -658 0
-647 -659 0
-647 -660 0
-647 -661 0
-647 -662 0
-647 -663 0
-647 -664 0
-647 -665 0
-647 -666 0
-647 -667 0
-647 -668 0
-647 -669 0
-647 -670 0
-647 -671 0
-647 -672 0
-647 -673 0
-647 -674 0
-647 -675 0
-647 -676 0
-647 -677 0
-647 -678 0
-647 -679 0
-647 -680 0
-647 -681 0
-647 -682 0
-647 -683 0
-647 -684 0
-647 -685 0
-647 -686 0
-647 -687 0
-647 -688 0
-647 -689 0
-647 -690 0
-647 -691 0
-647 -692 0
-647 -693 0
-647 -694 0
-647 -695 0
-647 -696 0
-647 -697 0
-647 -698 0
-647 -699 0
-647 -700 0
-647 -701 0
-647 -702 0
-647 -703 0
-647 -704 0
-647 -705 0
-647 -706 0
-647 -707 0
-648 -649 0
-648 -650 0
-648 -651 0
-648 -652 0
-648 -653 0
-648 -654 0
-648 -655 0
-648 -656 0
-648 -657 0
-648 -658 0
-648 -659 0
-648 -660 0
-648 -661 0
-648 -662 0
-648 -663 0
-648 -664 0
-648 -665 0
-648 -666 0
-648 -667 0
-648 -668 0
-648 -669 0
-648 -670 0
-648 -671 0
-648 -672 0
-648 -673 0
-648 -674 0
-648 -675 0
-648 -676 0
-648 -677 0
-648 -678 0
-648 -679 0
-648 -680 0
-648 -681 0
-648 -682 0
-648 -683 0
-648 -684 0
-648 -685 0
-648 -686 0
-648 -687 0
-648 -688 0
-648 -689 0
-648 -690 0
-648 -691 0
-648 -692 0
-648 -693 0
-648 -694 0
-648 -695 0
-648 -696 0
-648 -697 0
-648 -698 0
-648 -699 0
-648 -700 0
-648 -701 0
-648 -702 0
-648 -703 0
-648 -704 0
-648 -705 0
-648 -706 0
-648 -707 0
-649 -650 0
-649 -651 0
-649 -652 0
-649 -653 0
-649 -654 0
-649 -655 0
-649 -656 0
-649 -657 0
-649 -658 0
-649 -659 0
-649 -660 0
-649 -661 0
-649 -662 0
-649 -663 0
-649 -664 0
-649 -665 0
-649 -666 0
-649 -667 0
-649 -668 0
-649 -669 0
-649 -670 0
-649 -671 0
-649 -672 0
-649 -673 0
-649 -674 0
-649 -675 0
-649 -676 0
-649 -677 0
-649 -678 0
-649 -679 0
-649 -680 0
-649 -681 0
-649 -682 0
-649 -683 0
-649 -684 0
-649 -685 0
-649 -686 0
-649 -687 0
-649 -688 0
-649 -689 0
-649 -690 0
-649 -691 0
-649 -692 0
-649 -693 0
-649 -694 0
-649 -695 0
-649 -696 0
-649 -697 0
-649 -698 0
-649 -699 0
-649 -700 0
-649 -701 0
-649 -702 0
-649 -703 0
-649 -704 0
-649 -705 0
-649 -706 0
-649 -707 0
-650 -651 0
-650 -652 0
-650 -653 0
-650 -654 0
-650 -655 0
-650 -656 0
-650 -657 0
-650 -658 0
-650 -659 0
-650 -660 0
-650 -661 0
-650 -662 0
-650 -663 0
-650 -664 0
-650 -665 0
-650 -666 0
-650 -667 0
-650 -668 0
-650 -669 0
-650 -670 0
-650 -671 0
-650 -672 0
-650 -673 0
-650 -674 0
-650 -675 0
-650 -676 0
-650 -677 0
-650 -678 0
-650 -679 0
-650 -680 0
-650 -681 0
-650 -682 0
-650 -683 0
-650 -684 0
-650 -685 0
-650 -686 0
-650 -687 0
-650 -688 0
-650 -689 0
-650 -690 0
-650 -691 0
-650 -692 0
-650 -693 0
-650 -694 0
-650 -695 0
-650 -696 0
-650 -697 0
-650 -698 0
-650 -699 0
-650 -700 0
-650 -701 0
-650 -702 0
-650 -703 0
-650 -704 0
-650 -705 0
-650 -706 0
-650 -707 0
-651 -652 0
-651 -653 0
-651 -654 0
-651 -655 0
-651 -656 0
-651 -657 0
-651 -658 0
-651 -659 0
-651 -660 0
-651 -661 0
-651 -662 0
-651 -663 0
-651 -664 0
-651 -665 0
-651 -666 0
-651 -667 0
-651 -668 0
-651 -669 0
-651 -670 0
-651 -671 0
-651 -672 0
-651 -673 0
-651 -674 0
-651 -675 0
-651 -676 0
-651 -677 0
-651 -678 0
-651 -679 0
-651 -680 0
-651 -681 0
-651 -682 0
-651 -683 0
-651 -684 0
-651 -685 0
-651 -686 0
-651 -687 0
-651 -688 0
-651 -689 0
-651 -690 0
-651 -691 0
-651 -692 0
-651 -693 0
-651 -694 0
-651 -695 0
-651 -696 0
-651 -697 0
-651 -698 0
-651 -699 0
-651 -700 0
-651 -701 0
-651 -702 0
-651 -703 0
-651 -704 0
-651 -705 0
-651 -706 0
-651 -707 0
-652 -653 0
-652 -654 0
-652 -655 0
-652 -656 0
-652 -657 0
-652 -658 0
-652 -659 0
-652 -660 0
-652 -661 0
-652 -662 0
-652 -663 0
-652 -664 0
-652 -665 0
-652 -666 0
-652 -667 0
-652 -668 0
-652 -669 0
-652 -670 0
-652 -671 0
-652 -672 0
-652 -673 0
-652 -674 0
-652 -675 0
-652 -676 0
-652 -677 0
-652 -678 0
-652 -679 0
-652 -680 0
-652 -681 0
-652 -682 0
-652 -683 0
-652 -684 0
-652 -685 0
-652 -686 0
-652 -687 0
-652 -688 0
-652 -689 0
-652 -690 0
-652 -691 0
-652 -692 0
-652 -693 0
-652 -694 0
-652 -695 0
-652 -696 0
-652 -697 0
-652 -698 0
-652 -699 0
-652 -700 0
-652 -701 0
-652 -702 0
-652 -703 0
-652 -704 0
-652 -705 0
-652 -706 0
-652 -707 0
-653 -654 0
-653 -655 0
-653 -656 0
-653 -657 0
-653 -658 0
-653 -659 0
-653 -660 0
-653 -661 0
-653 -662 0
-653 -663 0
-653 -664 0
-653 -665 0
-653 -666 0
-653 -667 0
-653 -668 0
-653 -669 0
-653 -670 0
-653 -671 0
-653 -672 0
-653 -673 0
-653 -674 0
-653 -675 0
-653 -676 0
-653 -677 0
-653 -678 0
-653 -679 0
-653 -680 0
-653 -681 0
-653 -682 0
-653 -683 0
-653 -684 0
-653 -685 0
-653 -686 0
-653 -687 0
-653 -688 0
-653 -689 0
-653 -690 0
-653 -691 0
-653 -692 0
-653 -693 0
-653 -694 0
-653 -695 0
-653 -696 0
-653 -697 0
-653 -698 0
-653 -699 0
-653 -700 0
-653 -701 0
-653 -702 0
-653 -703 0
-653 -704 0
-653 -705 0
-653 -706 0
-653 -707 0
-654 -655 0
-654 -656 0
-654 -657 0
-654 -658 0
-654 -659 0
-654 -660 0
-654 -661 0
-654 -662 0
-654 -663 0
-654 -664 0
-654 -665 0
-654 -666 0
-654 -667 0
-654 -668 0
-654 -669 0
-654 -670 0
-654 -671 0
-654 -672 0
-654 -673 0
-654 -674 0
-654 -675 0
-654 -676 0
-654 -677 0
-654 -678 0
-654 -679 0
-654 -680 0
-654 -681 0
-654 -682 0
-654 -683 0
-654 -684 0
-654 -685 0
-654 -686 0
-654 -687 0
-654 -688 0
-654 -689 0
-654 -690 0
-654 -691 0
-654 -692 0
-654 -693 0
-654 -694 0
-654 -695 0
-654 -696 0
-654 -697 0
-654 -698 0
-654 -699 0
-654 -700 0
-654 -701 0
-654 -702 0
-654 -703 0
-654 -704 0
-654 -705 0
-654 -706 0
-654 -707 0
-655 -656 0
-655 -657 0
-655 -658 0
-655 -659 0
-655 -660 0
-655 -661 0
-655 -662 0
-655 -663 0
-655 -664 0
-655 -665 0
-655 -666 0
-655 -667 0
-655 -668 0
-655 -669 0
-655 -670 0
-655 -671 0
-655 -672 0
-655 -673 0
-655 -674 0
-655 -675 0
-655 -676 0
-655 -677 0
-655 -678 0
-655 -679 0
-655 -680 0
-655 -681 0
-655 -682 0
-655 -683 0
-655 -684 0
-655 -685 0
-655 -686 0
-655 -687 0
-655 -688 0
-655 -689 0
-655 -690 0
-655 -691 0
-655 -692 0
-655 -693 0
-655 -694 0
-655 -695 0
-655 -696 0
-655 -697 0
-655 -698 0
-655 -699 0
-655 -700 0
-655 -701 0
-655 -702 0
-655 -703 0
-655 -704 0
-655 -705 0
-655 -706 0
-655 -707 0
-656 -657 0
-656 -658 0
-656 -659 0
-656 -660 0
-656 -661 0
-656 -662 0
-656 -663 0
-656 -664 0
-656 -665 0
-656 -666 0
-656 -667 0
-656 -668 0
-656 -669 0
-656 -670 0
-656 -671 0
-656 -672 0
-656 -673 0
-656 -674 0
-656 -675 0
-656 -676 0
-656 -677 0
-656 -678 0
-656 -679 0
-656 -680 0
-656 -681 0
-656 -682 0
-656 -683 0
-656 -684 0
-656 -685 0
-656 -686 0
-656 -687 0
-656 -688 0
-656 -689 0
-656 -690 0
-656 -691 0
-656 -692 0
-656 -693 0
-656 -694 0
-656 -695 0
-656 -696 0
-656 -697 0
-656 -698 0
-656 -699 0
-656 -700 0
-656 -701 0
-656 -702 0
-656 -703 0
-656 -704 0
-656 -705 0
-656 -706 0
-656 -707 0
-657 -658 0
-657 -659 0
-657 -660 0
-657 -661 0
-657 -662 0
-657 -663 0
-657 -664 0
-657 -665 0
-657 -666 0
-657 -667 0
-657 -668 0
-657 -669 0
-657 -670 0
-657 -671 0
-657 -672 0
-657 -673 0
-657 -674 0
-657 -675 0
-657 -676 0
-657 -677 0
-657 -678 0
-657 -679 0
-657 -680 0
-657 -681 0
-657 -682 0
-657 -683 0
-657 -684 0
-657 -685 0
-657 -686 0
-657 -687 0
-657 -688 0
-657 -689 0
-657 -690 0
-657 -691 0
-657 -692 0
-657 -693 0
-657 -694 0
-657 -695 0
-657 -696 0
-657 -697 0
-657 -698 0
-657 -699 0
-657 -700 0
-657 -701 0
-657 -702 0
-657 -703 0
-657 -704 0
-657 -705 0
-657 -706 0
-657 -707 0
-658 -659 0
-658 -660 0
-658 -661 0
-658 -662 0
-658 -663 0
-658 -664 0
-658 -665 0
-658 -666 0
-658 -667 0
-658 -668 0
-658 -669 0
-658 -670 0
-658 -671 0
-658 -672 0
-658 -673 0
-658 -674 0
-658 -675 0
-658 -676 0
-658 -677 0
-658 -678 0
-658 -679 0
-658 -680 0
-658 -681 0
-658 -682 0
-658 -683 0
-658 -684 0
-658 -685 0
-658 -686 0
-658 -687 0
-658 -688 0
-658 -689 0
-658 -690 0
-658 -691 0
-658 -692 0
-658 -693 0
-658 -694 0
-658 -695 0
-658 -696 0
-658 -697 0
-658 -698 0
-658 -699 0
-658 -700 0
-658 -701 0
-658 -702 0
-658 -703 0
-658 -704 0
-658 -705 0
-658 -706 0
-658 -707 0
-659 -660 0
-659 -661 0
-659 -662 0
-659 -663 0
-659 -664 0
-659 -665 0
-659 -666 0
-659 -667 0
-659 -668 0
-659 -669 0
-659 -670 0
-659 -671 0
-659 -672 0
-659 -673 0
-659 -674 0
-659 -675 0
-659 -676 0
-659 -677 0
-659 -678 0
-659 -679 0
-659 -680 0
-659 -681 0
-659 -682 0
-659 -683 0
-659 -684 0
-659 -685 0
-659 -686 0
-659 -687 0
-659 -688 0
-659 -689 0
-659 -690 0
-659 -691 0
-659 -692 0
-659 -693 0
-659 -694 0
-659 -695 0
-659 -696 0
-659 -697 0
-659 -698 0
-659 -699 0
-659 -700 0
-659 -701 0
-659 -702 0
-659 -703 0
-659 -704 0
-659 -705 0
-659 -706 0
-659 -707 0
-660 -661 0
-660 -662 0
-660 -663 0
-660 -664 0
-660 -665 0
-660 -666 0
-660 -667 0
-660 -668 0
-660 -669 0
-660 -670 0
-660 -671 0
-660 -672 0
-660 -673 0
-660 -674 0
-660 -675 0
-660 -676 0
-660 -677 0
-660 -678 0
-660 -679 0
-660 -680 0
-660 -681 0
-660 -682 0
-660 -683 0
-660 -684 0
-660 -685 0
-660 -686 0
-660 -687 0
-660 -688 0
-660 -689 0
-660 -690 0
-660 -691 0
-660 -692 0
-660 -693 0
-660 -694 0
-660 -695 0
-660 -696 0
-660 -697 0
-660 -698 0
-660 -699 0
-660 -700 0
-660 -701 0
-660 -702 0
-660 -703 0
-660 -704 0
-660 -705 0
-660 -706 0
-660 -707 0
-661 -662 0
-661 -663 0
-661 -664 0
-661 -665 0
-661 -666 0
-661 -667 0
-661 -668 0
-661 -669 0
-661 -670 0
-661 -671 0
-661 -672 0
-661 -673 0
-661 -674 0
-661 -675 0
-661 -676 0
-661 -677 0
-661 -678 0
-661 -679 0
-661 -680 0
-661 -681 0
-661 -682 0
-661 -683 0
-661 -684 0
-661 -685 0
-661 -686 0
-661 -687 0
-661 -688 0
-661 -689 0
-661 -690 0
-661 -691 0
-661 -692 0
-661 -693 0
-661 -694 0
-661 -695 0
-661 -696 0
-661 -697 0
-661 -698 0
-661 -699 0
-661 -700 0
-661 -701 0
-661 -702 0
-661 -703 0
-661 -704 0
-661 -705 0
-661 -706 0
-661 -707 0
-662 -663 0
-662 -664 0
-662 -665 0
-662 -666 0
-662 -667 0
-662 -668 0
-662 -669 0
-662 -670 0
-662 -671 0
-662 -672 0
-662 -673 0
-662 -674 0
-662 -675 0
-662 -676 0
-662 -677 0
-662 -678 0
-662 -679 0
-662 -680 0
-662 -681 0
-662 -682 0
-662 -683 0
-662 -684 0
-662 -685 0
-662 -686 0
-662 -687 0
-662 -688 0
-662 -689 0
-662 -690 0
-662 -691 0
-662 -692 0
-662 -693 0
-662 -694 0
-662 -695 0
-662 -696 0
-662 -697 0
-662 -698 0
-662 -699 0
-662 -700 0
-662 -701 0
-662 -702 0
-662 -703 0
-662 -704 0
-662 -705 0
-662 -706 0
-662 -707 0
-663 -664 0
-663 -665 0
-663 -666 0
-663 -667 0
-663 -668 0
-663 -669 0
-663 -670 0
-663 -671 0
-663 -672 0
-663 -673 0
-663 -674 0
-663 -675 0
-663 -676 0
-663 -677 0
-663 -678 0
-663 -679 0
-663 -680 0
-663 -681 0
-663 -682 0
-663 -683 0
-663 -684 0
-663 -685 0
-663 -686 0
-663 -687 0
-663 -688 0
-663 -689 0
-663 -690 0
-663 -691 0
-663 -692 0
-663 -693 0
-663 -694 0
-663 -695 0
-663 -696 0
-663 -697 0
-663 -698 0
-663 -699 0
-663 -700 0
-663 -701 0
-663 -702 0
-663 -703 0
-663 -704 0
-663 -705 0
-663 -706 0
-663 -707 0
-664 -665 0
-664 -666 0
-664 -667 0
-664 -668 0
-664 -669 0
-664 -670 0
-664 -671 0
-664 -672 0
-664 -673 0
-664 -674 0
-664 -675 0
-664 -676 0
-664 -677 0
-664 -678 0
-664 -679 0
-664 -680 0
-664 -681 0
-664 -682 0
-664 -683 0
-664 -684 0
-664 -685 0
-664 -686 0
-664 -687 0
-664 -688 0
-664 -689 0
-664 -690 0
-664 -691 0
-664 -692 0
-664 -693 0
-664 -694 0
-664 -695 0
-664 -696 0
-664 -697 0
-664 -698 0
-664 -699 0
-664 -700 0
-664 -701 0
-664 -702 0
-664 -703 0
-664 -704 0
-664 -705 0
-664 -706 0
-664 -707 0
-665 -666 0
-665 -667 0
-665 -668 0
-665 -669 0
-665 -670 0
-665 -671 0
-665 -672 0
-665 -673 0
-665 -674 0
-665 -675 0
-665 -676 0
-665 -677 0
-665 -678 0
-665 -679 0
-665 -680 0
-665 -681 0
-665 -682 0
-665 -683 0
-665 -684 0
-665 -685 0
-665 -686 0
-665 -687 0
-665 -688 0
-665 -689 0
-665 -690 0
-665 -691 0
-665 -692 0
-665 -693 0
-665 -694 0
-665 -695 0
-665 -696 0
-665 -697 0
-665 -698 0
-665 -699 0
-665 -700 0
-665 -701 0
-665 -702 0
-665 -703 0
-665 -704 0
-665 -705 0
-665 -706 0
-665 -707 0
-666 -667 0
-666 -668 0
-666 -669 0
-666 -670 0
-666 -671 0
-666 -672 0
-666 -673 0
-666 -674 0
-666 -675 0
-666 -676 0
-666 -677 0
-666 -678 0
-666 -679 0
-666 -680 0
-666 -681 0
-666 -682 0
-666 -683 0
-666 -684 0
-666 -685 0
-666 -686 0
-666 -687 0
-666 -688 0
-666 -689 0
-666 -690 0
-666 -691 0
-666 -692 0
-666 -693 0
-666 -694 0
-666 -695 0
-666 -696 0
-666 -697 0
-666 -698 0
-666 -699 0
-666 -700 0
-666 -701 0
-666 -702 0
-666 -703 0
-666 -704 0
-666 -705 0
-666 -706 0
-666 -707 0
-667 -668 0
-667 -669 0
-667 -670 0
-667 -671 0
-667 -672 0
-667 -673 0
-667 -674 0
-667 -675 0
-667 -676 0
-667 -677 0
-667 -678 0
-667 -679 0
-667 -680 0
-667 -681 0
-667 -682 0
-667 -683 0
-667 -684 0
-667 -685 0
-667 -686 0
-667 -687 0
-667 -688 0
-667 -689 0
-667 -690 0
-667 -691 0
-667 -692 0
-667 -693 0
-667 -694 0
-667 -695 0
-667 -696 0
-667 -697 0
-667 -698 0
-667 -699 0
-667 -700 0
-667 -701 0
-667 -702 0
-667 -703 0
-667 -704 0
-667 -705 0
-667 -706 0
-667 -707 0
-668 -669 0
-668 -670 0
-668 -671 0
-668 -672 0
-668 -673 0
-668 -674 0
-668 -675 0
-668 -676 0
-668 -677 0
-668 -678 0
-668 -679 0
-668 -680 0
-668 -681 0
-668 -682 0
-668 -683 0
-668 -684 0
-668 -685 0
-668 -686 0
-668 -687 0
-668 -688 0
-668 -689 0
-668 -690 0
-668 -691 0
-668 -692 0
-668 -693 0
-668 -694 0
-668 -695 0
-668 -696 0
-668 -697 0
-668 -698 0
-668 -699 0
-668 -700 0
-668 -701 0
-668 -702 0
-668 -703 0
-668 -704 0
-668 -705 0
-668 -706 0
-668 -707 0
-669 -670 0
-669 -671 0
-669 -672 0
-669 -673 0
-669 -674 0
-669 -675 0
-669 -676 0
-669 -677 0
-669 -678 0
-669 -679 0
-669 -680 0
-669 -681 0
-669 -682 0
-669 -683 0
-669 -684 0
-669 -685 0
-669 -686 0
-669 -687 0
-669 -688 0
-669 -689 0
-669 -690 0
-669 -691 0
-669 -692 0
-669 -693 0
-669 -694 0
-669 -695 0
-669 -696 0
-669 -697 0
-669 -698 0
-669 -699 0
-669 -700 0
-669 -701 0
-669 -702 0
-669 -703 0
-669 -704 0
-669 -705 0
-669 -706 0
-669 -707 0
-670 -671 0
-670 -672 0
-670 -673 0
-670 -674 0
-670 -675 0
-670 -676 0
-670 -677 0
-670 -678 0
-670 -679 0
-670 -680 0
-670 -681 0
-670 -682 0
-670 -683 0
-670 -684 0
-670 -685 0
-670 -686 0
-670 -687 0
-670 -688 0
-670 -689 0
-670 -690 0
-670 -691 0
-670 -692 0
-670 -693 0
-670 -694 0
-670 -695 0
-670 -696 0
-670 -697 0
-670 -698 0
-670 -699 0
-670 -700 0
-670 -701 0
-670 -702 0
-670 -703 0
-670 -704 0
-670 -705 0
-670 -706 0
-670 -707 0
-671 -672 0
-671 -673 0
-671 -674 0
-671 -675 0
-671 -676 0
-671 -677 0
-671 -678 0
-671 -679 0
-671 -680 0
-671 -681 0
-671 -682 0
-671 -683 0
-671 -684 0
-671 -685 0
-671 -686 0
-671 -687 0
-671 -688 0
-671 -689 0
-671 -690 0
-671 -691 0
-671 -692 0
-671 -693 0
-671 -694 0
-671 -695 0
-671 -696 0
-671 -697 0
-671 -698 0
-671 -699 0
-671 -700 0
-671 -701 0
-671 -702 0
-671 -703 0
-671 -704 0
-671 -705 0
-671 -706 0
-671 -707 0
-672 -673 0
-672 -674 0
-672 -675 0
-672 -676 0
-672 -677 0
-672 -678 0
-672 -679 0
-672 -680 0
-672 -681 0
-672 -682 0
-672 -683 0
-672 -684 0
-672 -685 0
-672 -686 0
-672 -687 0
-672 -688 0
-672 -689 0
-672 -690 0
-672 -691 0
-672 -692 0
-672 -693 0
-672 -694 0
-672 -695 0
-672 -696 0
-672 -697 0
-672 -698 0
-672 -699 0
-672 -700 0
-672 -701 0
-672 -702 0
-672 -703 0
-672 -704 0
-672 -705 0
-672 -706 0
-672 -707 0
-673 -674 0
-673 -675 0
-673 -676 0
-673 -677 0
-673 -678 0
-673 -679 0
-673 -680 0
-673 -681 0
-673 -682 0
-673 -683 0
-673 -684 0
-673 -685 0
-673 -686 0
-673 -687 0
-673 -688 0
-673 -689 0
-673 -690 0
-673 -691 0
-673 -692 0
-673 -693 0
-673 -694 0
-673 -695 0
-673 -696 0
-673 -697 0
-673 -698 0
-673 -699 0
-673 -700 0
-673 -701 0
-673 -702 0
-673 -703 0
-673 -704 0
-673 -705 0
-673 -706 0
-673 -707 0
-674 -675 0
-674 -676 0
-674 -677 0
-674 -678 0
-674 -679 0
-674 -680 0
-674 -681 0
-674 -682 0
-674 -683 0
-674 -684 0
-674 -685 0
-674 -686 0
-674 -687 0
-674 -688 0
-674 -689 0
-674 -690 0
-674 -691 0
-674 -692 0
-674 -693 0
-674 -694 0
-674 -695 0
-674 -696 0
-674 -697 0
-674 -698 0
-674 -699 0
-674 -700 0
-674 -701 0
-674 -702 0
-674 -703 0
-674 -704 0
-674 -705 0
-674 -706 0
-674 -707 0
-675 -676 0
-675 -677 0
-675 -678 0
-675 -679 0
-675 -680 0
-675 -681 0
-675 -682 0
-675 -683 0
-675 -684 0
-675 -685 0
-675 -686 0
-675 -687 0
-675 -688 0
-675 -689 0
-675 -690 0
-675 -691 0
-675 -692 0
-675 -693 0
-675 -694 0
-675 -695 0
-675 -696 0
-675 -697 0
-675 -698 0
-675 -699 0
-675 -700 0
-675 -701 0
-675 -702 0
-675 -703 0
-675 -704 0
-675 -705 0
-675 -706 0
-675 -707 0
-676 -677 0
-676 -678 0
-676 -679 0
-676 -680 0
-676 -681 0
-676 -682 0
-676 -683 0
-676 -684 0
-676 -685 0
-676 -686 0
-676 -687 0
-676 -688 0
-676 -689 0
-676 -690 0
-676 -691 0
-676 -692 0
-676 -693 0
-676 -694 0
-676 -695 0
-676 -696 0
-676 -697 0
-676 -698 0
-676 -699 0
-676 -700 0
-676 -701 0
-676 -702 0
-676 -703 0
-676 -704 0
-676 -705 0
-676 -706 0
-676 -707 0
-677 -678 0
-677 -679 0
-677 -680 0
-677 -681 0
-677 -682 0
-677 -683 0
-677 -684 0
-677 -685 0
-677 -686 0
-677 -687 0
-677 -688 0
-677 -689 0
-677 -690 0
-677 -691 0
-677 -692 0
-677 -693 0
-677 -694 0
-677 -695 0
-677 -696 0
-677 -697 0
-677 -698 0
-677 -699 0
-677 -700 0
-677 -701 0
-677 -702 0
-677 -703 0
-677 -704 0
-677 -705 0
-677 -706 0
-677 -707 0
-678 -679 0
-678 -680 0
-678 -681 0
-678 -682 0
-678 -683 0
-678 -684 0
-678 -685 0
-678 -686 0
-678 -687 0
-678 -688 0
-678 -689 0
-678 -690 0
-678 -691 0
-678 -692 0
-678 -693 0
-678 -694 0
-678 -695 0
-678 -696 0
-678 -697 0
-678 -698 0
-678 -699 0
-678 -700 0
-678 -701 0
-678 -702 0
-678 -703 0
-678 -704 0
-678 -705 0
-678 -706 0
-678 -707 0
-679 -680 0
-679 -681 0
-679 -682 0
-679 -683 0
-679 -684 0
-679 -685 0
-679 -686 0
-679 -687 0
-679 -688 0
-679 -689 0
-679 -690 0
-679 -691 0
-679 -692 0
-679 -693 0
-679 -694 0
-679 -695 0
-679 -696 0
-679 -697 0
-679 -698 0
-679 -699 0
-679 -700 0
-679 -701 0
-679 -702 0
-679 -703 0
-679 -704 0
-679 -705 0
-679 -706 0
-679 -707 0
-680 -681 0
-680 -682 0
-680 -683 0
-680 -684 0
-680 -685 0
-680 -686 0
-680 -687 0
-680 -688 0
-680 -689 0
-680 -690 0
-680 -691 0
-680 -692 0
-680 -693 0
-680 -694 0
-680 -695 0
-680 -696 0
-680 -697 0
-680 -698 0
-680 -699 0
-680 -700 0
-680 -701 0
-680 -702 0
-680 -703 0
-680 -704 0
-680 -705 0
-680 -706 0
-680 -707 0
-681 -682 0
-681 -683 0
-681 -684 0
-681 -685 0
-681 -686 0
-681 -687 0
-681 -688 0
-681 -689 0
-681 -690 0
-681 -691 0
-681 -692 0
-681 -693 0
-681 -694 0
-681 -695 0
-681 -696 0
-681 -697 0
-681 -698 0
-681 -699 0
-681 -700 0
-681 -701 0
-681 -702 0
-681 -703 0
-681 -704 0
-681 -705 0
-681 -706 0
-681 -707 0
-682 -683 0
-682 -684 0
-682 -685 0
-682 -686 0
-682 -687 0
-682 -688 0
-682 -689 0
-682 -690 0
-682 -691 0
-682 -692 0
-682 -693 0
-682 -694 0
-682 -695 0
-682 -696 0
-682 -697 0
-682 -698 0
-682 -699 0
-682 -700 0
-682 -701 0
-682 -702 0
-682 -703 0
-682 -704 0
-682 -705 0
-682 -706 0
-682 -707 0
-683 -684 0
-683 -685 0
-683 -686 0
-683 -687 0
-683 -688 0
-683 -689 0
-683 -690 0
-683 -691 0
-683 -692 0
-683 -693 0
-683 -694 0
-683 -695 0
-683 -696 0
-683 -697 0
-683 -698 0
-683 -699 0
-683 -700 0
-683 -701 0
-683 -702 0
-683 -703 0
-683 -704 0
-683 -705 0
-683 -706 0
-683 -707 0
-684 -685 0
-684 -686 0
-684 -687 0
-684 -688 0
-684 -689 0
-684 -690 0
-684 -691 0
-684 -692 0
-684 -693 0
-684 -694 0
-684 -695 0
-684 -696 0
-684 -697 0
-684 -698 0
-684 -699 0
-684 -700 0
-684 -701 0
-684 -702 0
-684 -703 0
-684 -704 0
-684 -705 0
-684 -706 0
-684 -707 0
-685 -686 0
-685 -687 0
-685 -688 0
-685 -689 0
-685 -690 0
-685 -691 0
-685 -692 0
-685 -693 0
-685 -694 0
-685 -695 0
-685 -696 0
-685 -697 0
-685 -698 0
-685 -699 0
-685 -700 0
-685 -701 0
-685 -702 0
-685 -703 0
-685 -704 0
-685 -705 0
-685 -706 0
-685 -707 0
-686 -687 0
-686 -688 0
-686 -689 0
-686 -690 0
-686 -691 0
-686 -692 0
-686 -693 0
-686 -694 0
-686 -695 0
-686 -696 0
-686 -697 0
-686 -698 0
-686 -699 0
-686 -700 0
-686 -701 0
-686 -702 0
-686 -703 0
-686 -704 0
-686 -705 0
-686 -706 0
-686 -707 0
-687 -688 0
-687 -689 0
-687 -690 0
-687 -691 0
-687 -692 0
-687 -693 0
-687 -694 0
-687 -695 0
-687 -696 0
-687 -697 0
-687 -698 0
-687 -699 0
-687 -700 0
-687 -701 0
-687 -702 0
-687 -703 0
-687 -704 0
-687 -705 0
-687 -706 0
-687 -707 0
-688 -689 0
-688 -690 0
-688 -691 0
-688 -692 0
-688 -693 0
-688 -694 0
-688 -695 0
-688 -696 0
-688 -697 0
-688 -698 0
-688 -699 0
-688 -700 0
-688 -701 0
-688 -702 0
-688 -703 0
-688 -704 0
-688 -705 0
-688 -706 0
-688 -707 0
-689 -690 0
-689 -691 0
-689 -692 0
-689 -693 0
-689 -694 0
-689 -695 0
-689 -696 0
-689 -697 0
-689 -698 0
-689 -699 0
-689 -700 0
-689 -701 0
-689 -702 0
-689 -703 0
-689 -704 0
-689 -705 0
-689 -706 0
-689 -707 0
-690 -691 0
-690 -692 0
-690 -693 0
-690 -694 0
-690 -695 0
-690 -696 0
-690 -697 0
-690 -698 0
-690 -699 0
-690 -700 0
-690 -701 0
-690 -702 0
-690 -703 0
-690 -704 0
-690 -705 0
-690 -706 0
-690 -707 0
-691 -692 0
-691 -693 0
-691 -694 0
-691 -695 0
-691 -696 0
-691 -697 0
-691 -698 0
-691 -699 0
-691 -700 0
-691 -701 0
-691 -702 0
-691 -703 0
-691 -704 0
-691 -705 0
-691 -706 0
-691 -707 0
-692 -693 0
-692 -694 0
-692 -695 0
-692 -696 0
-692 -697 0
-692 -698 0
-692 -699 0
-692 -700 0
-692 -701 0
-692 -702 0
-692 -703 0
-692 -704 0
-692 -705 0
-692 -706 0
-692 -707 0
-693 -694 0
-693 -695 0
-693 -696 0
-693 -697 0
-693 -698 0
-693 -699 0
-693 -700 0
-693 -701 0
-693 -702 0
-693 -703 0
-693 -704 0
-693 -705 0
-693 -706 0
-693 -707 0
-694 -695 0
-694 -696 0
-694 -697 0
-694 -698 0
-694 -699 0
-694 -700 0
-694 -701 0
-694 -702 0
-694 -703 0
-694 -704 0
-694 -705 0
-694 -706 0
-694 -707 0
-695 -696 0
-695 -697 0
-695 -698 0
-695 -699 0
-695 -700 0
-695 -701 0
-695 -702 0
-695 -703 0
-695 -704 0
-695 -705 0
-695 -706 0
-695 -707 0
-696 -697 0
-696 -698 0
-696 -699 0
-696 -700 0
-696 -701 0
-696 -702 0
-696 -703 0
-696 -704 0
-696 -705 0
-696 -706 0
-696 -707 0
-697 -698 0
-697 -699 0
-697 -700 0
-697 -701 0
-697 -702 0
-697 -703 0
-697 -704 0
-697 -705 0
-697 -706 0
-697 -707 0
-698 -699 0
-698 -700 0
-698 -701 0
-698 -702 0
-698 -703 0
-698 -704 0
-698 -705 0
-698 -706 0
-698 -707 0
-699 -700 0
-699 -701 0
-699 -702 0
-699 -703 0
-699 -704 0
-699 -705 0
-699 -706 0
-699 -707 0
-700 -701 0
-700 -702 0
-700 -703 0
-700 -704 0
-700 -705 0
-700 -706 0
-700 -707 0
-701 -702 0
-701 -703 0
-701 -704 0
-701 -705 0
-701 -706 0
-701 -707 0
-702 -703 0
-702 -704 0
-702 -705 0
-702 -706 0
-702 -707 0
-703 -704 0
-703 -705 0
-703 -706 0
-703 -707 0
-704 -705 0
-704 -706 0
-704 -707 0
-705 -706 0
-705 -707 0
-706 -707 0
708 709 710 711 712 713 714 715 716 717 718 719 720 721 722 723 724 725 726 727 728 729 730 731 732 733 734 735 736 737 738 739 740 741 742 743 744 745 746 747 748 749 750 751 752 753 754 755 756 757 758 759 760 761 762 763 764 765 766 767 768 769 770 771 772 773 774 775 776 777 778 779 780 781 782 783 784 785 786 787 788 789 790 791 0
-708 -709 0
-708 -710 0
-708 -711 0
-708 -712 0
-708 -713 0
-708 -714 0
-708 -715 0
-708 -716 0
-708 -717 0
-708 -718 0
-708 -719 0
-708 -720 0
-708 -721 0
-708 -722 0
-708 -723 0
-708 -724 0
-708 -725 0
-708 -726 0
-708 -727 0
-708 -728 0
-708 -729 0
-708 -730 0
-708 -731 0
-708 -732 0
-708 -733 0
-708 -734 0
-708 -735 0
-708 -736 0
-708 -737 0
-708 -738 0
-708 -739 0
-708 -740 0
-708 -741 0
-708 -742 0
-708 -743 0
-708 -744 0
-708 -745 0
-708 -746 0
-708 -747 0
-708 -748 0
-708 -749 0
-708 -750 0
-708 -751 0
-708 -752 0
-708 -753 0
-708 -754 0
-708 -755 0
-708 -756 0
-708 -757 0
-708 -758 0
-708 -759 0
-708 -760 0
-708 -761 0
-708 -762 0
-708 -763 0
-708 -764 0
-708 -765 0
-708 -766 0
-708 -767 0
-708 -768 0
-708 -769 0
-708 -770 0
-708 -771 0
-708 -772 0
-708 -773 0
-708 -774 0
-708 -775 0
-708 -776 0
-708 -777 0
-708 -778 0
-708 -779 0
-708 -780 0
-708 -781 0
-708 -782 0
-708 -783 0
-708 -784 0
-708 -785 0
-708 -786 0
-708 -787 0
-708 -788 0
-708 -789 0
-708 -790 0
-708 -791 0
-709 -710 0
-709 -711 0
-709 -712 0
-709 -713 0
-709 -714 0
-709 -715 0
-709 -716 0
-709 -717 0
-709 -718 0
-709 -719 0
-709 -720 0
-709 -721 0
-709 -722 0
-709 -723 0
-709 -724 0
-709 -725 0
-709 -726 0
-709 -727 0
-709 -728 0
-709 -729 0
-709 -730 0
-709 -731 0
-709 -732 0
-709 -733 0
-709 -734 0
-709 -735 0
-709 -736 0
-709 -737 0
-709 -738 0
-709 -739 0
-709 -740 0
-709 -741 0
-709 -742 0
-709 -743 0
-709 -744 0
-709 -745 0
-709 -746 0
-709 -747 0
-709 -748 0
-709 -749 0
-709 -750 0
-709 -751 0
-709 -752 0
-709 -753 0
-709 -754 0
-709 -755 0
-709 -756 0
-709 -757 0
-709 -758 0
-709 -759 0
-709 -760 0
-709 -761 0
-709 -762 0
-709 -763 0
-709 -764 0
-709 -765 0
-709 -766 0
-709 -767 0
-709 -768 0
-709 -769 0
-709 -770 0
-709 -771 0
-709 -772 0
-709 -773 0
-709 -774 0
-709 -775 0
-709 -776 0
-709 -777 0
-709 -778 0
-709 -779 0
-709 -780 0
-709 -781 0
-709 -782 0
-709 -783 0
-709 -784 0
-709 -785 0
-709 -786 0
-709 -787 0
-709 -788 0
-709 -789 0
-709 -790 0
-709 -791 0
-710 -711 0
-710 -712 0
-710 -713 0
-710 -714 0
-710 -715 0
-710 -716 0
-710 -717 0
-710 -718 0
-710 -719 0
-710 -720 0
-710 -721 0
-710 -722 0
-710 -723 0
-710 -724 0
-710 -725 0
-710 -726 0
-710 -727 0
-710 -728 0
-710 -729 0
-710 -730 0
-710 -731 0
-710 -732 0
-710 -733 0
-710 -734 0
-710 -735 0
-710 -736 0
-710 -737 0
-710 -738 0
-710 -739 0
-710 -740 0
-710 -741 0
-710 -742 0
-710 -743 0
-710 -744 0
-710 -745 0
-710 -746 0
-710 -747 0
-710 -748 0
-710 -749 0
-710 -750 0
-710 -751 0
-710 -752 0
-710 -753 0
-710 -754 0
-710 -755 0
-710 -756 0
-710 -757 0
-710 -758 0
-710 -759 0
-710 -760 0
-710 -761 0
-710 -762 0
-710 -763 0
-710 -764 0
-710 -765 0
-710 -766 0
-710 -767 0
-710 -768 0
-710 -769 0
-710 -770 0
-710 -771 0
-710 -772 0
-710 -773 0
-710 -774 0
-710 -775 0
-710 -776 0
-710 -777 0
-710 -778 0
-710 -779 0
-710 -780 0
-710 -781 0
-710 -782 0
-710 -783 0
-710 -784 0
-710 -785 0
-710 -786 0
-710 -787 0
-710 -788 0
-710 -789 0
-710 -790 0
-710 -791 0
-711 -712 0
-711 -713 0
-711 -714 0
-711 -715 0
-711 -716 0
-711 -717 0
-711 -718 0
-711 -719 0
-711 -720 0
-711 -721 0
-711 -722 0
-711 -723 0
-711 -724 0
-711 -725 0
-711 -726 0
-711 -727 0
-711 -728 0
-711 -729 0
-711 -730 0
-711 -731 0
-711 -732 0
-711 -733 0
-711 -734 0
-711 -735 0
-711 -736 0
-711 -737 0
-711 -738 0
-711 -739 0
-711 -740 0
-711 -741 0
-711 -742 0
-711 -743 0
-711 -744 0
-711 -745 0
-711 -746 0
-711 -747 0
-711 -748 0
-711 -749 0
-711 -750 0
-711 -751 0
-711 -752 0
-711 -753 0
-711 -754 0
-711 -755 0
-711 -756 0
-711 -757 0
-711 -758 0
-711 -759 0
-711 -760 0
-711 -761 0
-711 -762 0
-711 -763 0
-711 -764 0
-711 -765 0
-711 -766 0
-711 -767 0
-711 -768 0
-711 -769 0
-711 -770 0
-711 -771 0
-711 -772 0
-711 -773 0
-711 -774 0
-711 -775 0
-711 -776 0
-711 -777 0
-711 -778 0
-711 -779 0
-711 -780 0
-711 -781 0
-711 -782 0
-711 -783 0
-711 -784 0
-711 -785 0
-711 -786 0
-711 -787 0
-711 -788 0
-711 -789 0
-711 -790 0
-711 -791 0
-712 -713 0
-712 -714 0
-712 -715 0
-712 -716 0
-712 -717 0
-712 -718 0
-712 -719 0
-712 -720 0
-712 -721 0
-712 -722 0
-712 -723 0
-712 -724 0
-712 -725 0
-712 -726 0
-712 -727 0
-712 -728 0
-712 -729 0
-712 -730 0
-712 -731 0
-712 -732 0
-712 -733 0
-712 -734 0
-712 -735 0
-712 -736 0
-712 -737 0
-712 -738 0
-712 -739 0
-712 -740 0
-712 -741 0
-712 -742 0
-712 -743 0
-712 -744 0
-712 -745 0
-712 -746 0
-712 -747 0
-712 -748 0
-712 -749 0
-712 -750 0
-712 -751 0
-712 -752 0
-712 -753 0
-712 -754 0
-712 -755 0
-712 -756 0
-712 -757 0
-712 -758 0
-712 -759 0
-712 -760 0
-712 -761 0
-712 -762 0
-712 -763 0
-712 -764 0
-712 -765 0
-712 -766 0
-712 -767 0
-712 -768 0
-712 -769 0
-712 -770 0
-712 -771 0
-712 -772 0
-712 -773 0
-712 -774 0
-712 -775 0
-712 -776 0
-712 -777 0
-712 -778 0
-712 -779 0
-712 -780 0
-712 -781 0
-712 -782 0
-712 -783 0
-712 -784 0
-712 -785 0
-712 -786 0
-712 -787 0
-712 -788 0
-712 -789 0
-712 -790 0
-712 -791 0
-713 -714 0
-713 -715 0
-713 -716 0
-713 -717 0
-713 -718 0
-713 -719 0
-713 -720 0
-713 -721 0
-713 -722 0
-713 -723 0
-713 -724 0
-713 -725 0
-713 -726 0
-713 -727 0
-713 -728 0
-713 -729 0
-713 -730 0
-713 -731 0
-713 -732 0
-713 -733 0
-713 -734 0
-713 -735 0
-713 -736 0
-713 -737 0
-713 -738 0
-713 -739 0
-713 -740 0
-713 -741 0
-713 -742 0
-713 -743 0
-713 -744 0
-713 -745 0
-713 -746 0
-713 -747 0
-713 -748 0
-713 -749 0
-713 -750 0
-713 -751 0
-713 -752 0
-713 -753 0
-713 -754 0
-713 -755 0
-713 -756 0
-713 -757 0
-713 -758 0
-713 -759 0
-713 -760 0
-713 -761 0
-713 -762 0
-713 -763 0
-713 -764 0
-713 -765 0
-713 -766 0
-713 -767 0
-713 -768 0
-713 -769 0
-713 -770 0
-713 -771 0
-713 -772 0
-713 -773 0
-713 -774 0
-713 -775 0
-713 -776 0
-713 -777 0
-713 -778 0
-713 -779 0
-713 -780 0
-713 -781 0
-713 -782 0
-713 -783 0
-713 -784 0
-713 -785 0
-713 -786 0
-713 -787 0
-713 -788 0
-713 -789 0
-713 -790 0
-713 -791 0
-714 -715 0
-714 -716 0
-714 -717 0
-714 -718 0
-714 -719 0
-714 -720 0
-714 -721 0
-714 -722 0
-714 -723 0
-714 -724 0
-714 -725 0
-714 -726 0
-714 -727 0
-714 -728 0
-714 -729 0
-714 -730 0
-714 -731 0
-714 -732 0
-714 -733 0
-714 -734 0
-714 -735 0
-714 -736 0
-714 -737 0
-714 -738 0
-714 -739 0
-714 -740 0
-714 -741 0
-714 -742 0
-714 -743 0
-714 -744 0
-714 -745 0
-714 -746 0
-714 -747 0
-714 -748 0
-714 -749 0
-714 -750 0
-714 -751 0
-714 -752 0
-714 -753 0
-714 -754 0
-714 -755 0
-714 -756 0
-714 -757 0
-714 -758 0
-714 -759 0
-714 -760 0
-714 -761 0
-714 -762 0
-714 -763 0
-714 -764 0
-714 -765 0
-714 -766 0
-714 -767 0
-714 -768 0
-714 -769 0
-714 -770 0
-714 -771 0
-714 -772 0
-714 -773 0
-714 -774 0
-714 -775 0
-714 -776 0
-714 -777 0
-714 -778 0
-714 -779 0
-714 -780 0
-714 -781 0
-714 -782 0
-714 -783 0
-714 -784 0
-714 -785 0
-714 -786 0
-714 -787 0
-714 -788 0
-714 -789 0
-714 -790 0
-714 -791 0
-715 -716 0
-715 -717 0
-715 -718 0
-715 -719 0
-715 -720 0
-715 -721 0
-715 -722 0
-715 -723 0
-715 -724 0
-715 -725 0
-715 -726 0
-715 -727 0
-715 -728 0
-715 -729 0
-715 -730 0
-715 -731 0
-715 -732 0
-715 -733 0
-715 -734 0
-715 -735 0
-715 -736 0
-715 -737 0
-715 -738 0
-715 -739 0
-715 -740 0
-715 -741 0
-715 -742 0
-715 -743 0
-715 -744 0
-715 -745 0
-715 -746 0
-715 -747 0
-715 -748 0
-715 -749 0
-715 -750 0
-715 -751 0
-715 -752 0
-715 -753 0
-715 -754 0
-715 -755 0
-715 -756 0
-715 -757 0
-715 -758 0
-715 -759 0
-715 -760 0
-715 -761 0
-715 -762 0
-715 -763 0
-715 -764 0
-715 -765 0
-715 -766 0
-715 -767 0
-715 -768 0
-715 -769 0
-715 -770 0
-715 -771 0
-715 -772 0
-715 -773 0
-715 -774 0
-715 -775 0
-715 -776 0
-715 -777 0
-715 -778 0
-715 -779 0
-715 -780 0
-715 -781 0
-715 -782 0
-715 -783 0
-715 -784 0
-715 -785 0
-715 -786 0
-715 -787 0
-715 -788 0
-715 -789 0
-715 -790 0
-715 -791 0
-716 -717 0
-716 -718 0
-716 -719 0
-716 -720 0
-716 -721 0
-716 -722 0
-716 -723 0
-716 -724 0
-716 -725 0
-716 -726 0
-716 -727 0
-716 -728 0
-716 -729 0
-716 -730 0
-716 -731 0
-716 -732 0
-716 -733 0
-716 -734 0
-716 -735 0
-716 -736 0
-716 -737 0
-716 -738 0
-716 -739 0
-716 -740 0
-716 -741 0
-716 -742 0
-716 -743 0
-716 -744 0
-716 -745 0
-716 -746 0
-716 -747 0
-716 -748 0
-716 -749 0
-716 -750 0
-716 -751 0
-716 -752 0
-716 -753 0
-716 -754 0
-716 -755 0
-716 -756 0
-716 -757 0
-716 -758 0
-716 -759 0
-716 -760 0
-716 -761 0
-716 -762 0
-716 -763 0
-716 -764 0
-716 -765 0
-716 -766 0
-716 -767 0
-716 -768 0
-716 -769 0
-716 -770 0
-716 -771 0
-716 -772 0
-716 -773 0
-716 -774 0
-716 -775 0
-716 -776 0
-716 -777 0
-716 -778 0
-716 -779 0
-716 -780 0
-716 -781 0
-716 -782 0
-716 -783 0
-716 -784 0
-716 -785 0
-716 -786 0
-716 -787 0
-716 -788 0
-716 -789 0
-716 -790 0
-716 -791 0
-717 -718 0
-717 -719 0
-717 -720 0
-717 -721 0
-717 -722 0
-717 -723 0
-717 -724 0
-717 -725 0
-717 -726 0
-717 -727 0
-717 -728 0
-717 -729 0
-717 -730 0
-717 -731 0
-717 -732 0
-717 -733 0
-717 -734 0
-717 -735 0
-717 -736 0
-717 -737 0
-717 -738 0
-717 -739 0
-717 -740 0
-717 -741 0
-717 -742 0
-717 -743 0
-717 -744 0
-717 -745 0
-717 -746 0
-717 -747 0
-717 -748 0
-717 -749 0
-717 -750 0
-717 -751 0
-717 -752 0
-717 -753 0
-717 -754 0
-717 -755 0
-717 -756 0
-717 -757 0
-717 -758 0
-717 -759 0
-717 -760 0
-717 -761 0
-717 -762 0
-717 -763 0
-717 -764 0
-717 -765 0
-717 -766 0
-717 -767 0
-717 -768 0
-717 -769 0
-717 -770 0
-717 -771 0
-717 -772 0
-717 -773 0
-717 -774 0
-717 -775 0
-717 -776 0
-717 -777 0
-717 -778 0
-717 -779 0
-717 -780 0
-717 -781 0
-717 -782 0
-717 -783 0
-717 -784 0
-717 -785 0
-717 -786 0
-717 -787 0
-717 -788 0
-717 -789 0
-717 -790 0
-717 -791 0
-718 -719 0
-718 -720 0
-718 -721 0
-718 -722 0
-718 -723 0
-718 -724 0
-718 -725 0
-718 -726 0
-718 -727 0
-718 -728 0
-718 -729 0
-718 -730 0
-718 -731 0
-718 -732 0
-718 -733 0
-718 -734 0
-718 -735 0
-718 -736 0
-718 -737 0
-718 -738 0
-718 -739 0
-718 -740 0
-718 -741 0
-718 -742 0
-718 -743 0
-718 -744 0
-718 -745 0
-718 -746 0
-718 -747 0
-718 -748 0
-718 -749 0
-718 -750 0
-718 -751 0
-718 -752 0
-718 -753 0
-718 -754 0
-718 -755 0
-718 -756 0
-718 -757 0
-718 -758 0
-718 -759 0
-718 -760 0
-718 -761 0
-718 -762 0
-718 -763 0
-718 -764 0
-718 -765 0
-718 -766 0
-718 -767 0
-718 -768 0
-718 -769 0
-718 -770 0
-718 -771 0
-718 -772 0
-718 -773 0
-718 -774 0
-718 -775 0
-718 -776 0
-718 -777 0
-718 -778 0
-718 -779 0
-718 -780 0
-718 -781 0
-718 -782 0
-718 -783 0
-718 -784 0
-718 -785 0
-718 -786 0
-718 -787 0
-718 -788 0
-718 -789 0
-718 -790 0
-718 -791 0
-719 -720 0
-719 -721 0
-719 -722 0
-719 -723 0
-719 -724 0
-719 -725 0
-719 -726 0
-719 -727 0
-719 -728 0
-719 -729 0
-719 -730 0
-719 -731 0
-719 -732 0
-719 -733 0
-719 -734 0
-719 -735 0
-719 -736 0
-719 -737 0
-719 -738 0
-719 -739 0
-719 -740 0
-719 -741 0
-719 -742 0
-719 -743 0
-719 -744 0
-719 -745 0
-719 -746 0
-719 -747 0
-719 -748 0
-719 -749 0
-719 -750 0
-719 -751 0
-719 -752 0
-719 -753 0
-719 -754 0
-719 -755 0
-719 -756 0
-719 -757 0
-719 -758 0
-719 -759 0
-719 -760 0
-719 -761 0
-719 -762 0
-719 -763 0
-719 -764 0
-719 -765 0
-719 -766 0
-719 -767 0
-719 -768 0
-719 -769 0
-719 -770 0
-719 -771 0
-719 -772 0
-719 -773 0
-719 -774 0
-719 -775 0
-719 -776 0
-719 -777 0
-719 -778 0
-719 -779 0
-719 -780 0
-719 -781 0
-719 -782 0
-719 -783 0
-719 -784 0
-719 -785 0
-719 -786 0
-719 -787 0
-719 -788 0
-719 -789 0
-719 -790 0
-719 -791 0
-720 -721 0
-720 -722 0
-720 -723 0
-720 -724 0
-720 -725 0
-720 -726 0
-720 -727 0
-720 -728 0
-720 -729 0
-720 -730 0
-720 -731 0
-720 -732 0
-720 -733 0
-720 -734 0
-720 -735 0
-720 -736 0
-720 -737 0
-720 -738 0
-720 -739 0
-720 -740 0
-720 -741 0
-720 -742 0
-720 -743 0
-720 -744 0
-720 -745 0
-720 -746 0
-720 -747 0
-720 -748 0
-720 -749 0
-720 -750 0
-720 -751 0
-720 -752 0
-720 -753 0
-720 -754 0
-720 -755 0
-720 -756 0
-720 -757 0
-720 -758 0
-720 -759 0
-720 -760 0
-720 -761 0
-720 -762 0
-720 -763 0
-720 -764 0
-720 -765 0
-720 -766 0
-720 -767 0
-720 -768 0
-720 -769 0
-720 -770 0
-720 -771 0
-720 -772 0
-720 -773 0
-720 -774 0
-720 -775 0
-720 -776 0
-720 -777 0
-720 -778 0
-720 -779 0
-720 -780 0
-720 -781 0
-720 -782 0
-720 -783 0
-720 -784 0
-720 -785 0
-720 -786 0
-720 -787 0
-720 -788 0
-720 -789 0
-720 -790 0
-720 -791 0
-721 -722 0
-721 -723 0
-721 -724 0
-721 -725 0
-721 -726 0
-721 -727 0
-721 -728 0
-721 -729 0
-721 -730 0
-721 -731 0
-721 -732 0
-721 -733 0
-721 -734 0
-721 -735 0
-721 -736 0
-721 -737 0
-721 -738 0
-721 -739 0
-721 -740 0
-721 -741 0
-721 -742 0
-721 -743 0
-721 -744 0
-721 -745 0
-721 -746 0
-721 -747 0
-721 -748 0
-721 -749 0
-721 -750 0
-721 -751 0
-721 -752 0
-721 -753 0
-721 -754 0
-721 -755 0
-721 -756 0
-721 -757 0
-721 -758 0
-721 -759 0
-721 -760 0
-721 -761 0
-721 -762 0
-721 -763 0
-721 -764 0
-721 -765 0
-721 -766 0
-721 -767 0
-721 -768 0
-721 -769 0
-721 -770 0
-721 -771 0
-721 -772 0
-721 -773 0
-721 -774 0
-721 -775 0
-721 -776 0
-721 -777 0
-721 -778 0
-721 -779 0
-721 -780 0
-721 -781 0
-721 -782 0
-721 -783 0
-721 -784 0
-721 -785 0
-721 -786 0
-721 -787 0
-721 -788 0
-721 -789 0
-721 -790 0
-721 -791 0
-722 -723 0
-722 -724 0
-722 -725 0
-722 -726 0
-722 -727 0
-722 -728 0
-722 -729 0
-722 -730 0
-722 -731 0
-722 -732 0
-722 -733 0
-722 -734 0
-722 -735 0
-722 -736 0
-722 -737 0
-722 -738 0
-722 -739 0
-722 -740 0
-722 -741 0
-722 -742 0
-722 -743 0
-722 -744 0
-722 -745 0
-722 -746 0
-722 -747 0
-722 -748 0
-722 -749 0
-722 -750 0
-722 -751 0
-722 -752 0
-722 -753 0
-722 -754 0
-722 -755 0
-722 -756 0
-722 -757 0
-722 -758 0
-722 -759 0
-722 -760 0
-722 -761 0
-722 -762 0
-722 -763 0
-722 -764 0
-722 -765 0
-722 -766 0
-722 -767 0
-722 -768 0
-722 -769 0
-722 -770 0
-722 -771 0
-722 -772 0
-722 -773 0
-722 -774 0
-722 -775 0
-722 -776 0
-722 -777 0
-722 -778 0
-722 -779 0
-722 -780 0
-722 -781 0
-722 -782 0
-722 -783 0
-722 -784 0
-722 -785 0
-722 -786 0
-722 -787 0
-722 -788 0
-722 -789 0
-722 -790 0
-722 -791 0
-723 -724 0
-723 -725 0
-723 -726 0
-723 -727 0
-723 -728 0
-723 -729 0
-723 -730 0
-723 -731 0
-723 -732 0
-723 -733 0
-723 -734 0
-723 -735 0
-723 -736 0
-723 -737 0
-723 -738 0
-723 -739 0
-723 -740 0
-723 -741 0
-723 -742 0
-723 -743 0
-723 -744 0
-723 -745 0
-723 -746 0
-723 -747 0
-723 -748 0
-723 -749 0
-723 -750 0
-723 -751 0
-723 -752 0
-723 -753 0
-723 -754 0
-723 -755 0
-723 -756 0
-723 -757 0
-723 -758 0
-723 -759 0
-723 -760 0
-723 -761 0
-723 -762 0
-723 -763 0
-723 -764 0
-723 -765 0
-723 -766 0
-723 -767 0
-723 -768 0
-723 -769 0
-723 -770 0
-723 -771 0
-723 -772 0
-723 -773 0
-723 -774 0
-723 -775 0
-723 -776 0
-723 -777 0
-723 -778 0
-723 -779 0
-723 -780 0
-723 -781 0
-723 -782 0
-723 -783 0
-723 -784 0
-723 -785 0
-723 -786 0
-723 -787 0
-723 -788 0
-723 -789 0
-723 -790 0
-723 -791 0
-724 -725 0
-724 -726 0
-724 -727 0
-724 -728 0
-724 -729 0
-724 -730 0
-724 -731 0
-724 -732 0
-724 -733 0
-724 -734 0
-724 -735 0
-724 -736 0
-724 -737 0
-724 -738 0
-724 -739 0
-724 -740 0
-724 -741 0
-724 -742 0
-724 -743 0
-724 -744 0
-724 -745 0
-724 -746 0
-724 -747 0
-724 -748 0
-724 -749 0
-724 -750 0
-724 -751 0
-724 -752 0
-724 -753 0
-724 -754 0
-724 -755 0
-724 -756 0
-724 -757 0
-724 -758 0
-724 -759 0
-724 -760 0
-724 -761 0
-724 -762 0
-724 -763 0
-724 -764 0
-724 -765 0
-724 -766 0
-724 -767 0
-724 -768 0
-724 -769 0
-724 -770 0
-724 -771 0
-724 -772 0
-724 -773 0
-724 -774 0
-724 -775 0
-724 -776 0
-724 -777 0
-724 -778 0
-724 -779 0
-724 -780 0
-724 -781 0
-724 -782 0
-724 -783 0
-724 -784 0
-724 -785 0
-724 -786 0
-724 -787 0
-724 -788 0
-724 -789 0
-724 -790 0
-724 -791 0
-725 -726 0
-725 -727 0
-725 -728 0
-725 -729 0
-725 -730 0
-725 -731 0
-725 -732 0
-725 -733 0
-725 -734 0
-725 -735 0
-725 -736 0
-725 -737 0
-725 -738 0
-725 -739 0
-725 -740 0
-725 -741 0
-725 -742 0
-725 -743 0
-725 -744 0
-725 -745 0
-725 -746 0
-725 -747 0
-725 -748 0
-725 -749 0
-725 -750 0
-725 -751 0
-725 -752 0
-725 -753 0
-725 -754 0
-725 -755 0
-725 -756 0
-725 -757 0
-725 -758 0
-725 -759 0
-725 -760 0
-725 -761 0
-725 -762 0
-725 -763 0
-725 -764 0
-725 -765 0
-725 -766 0
-725 -767 0
-725 -768 0
-725 -769 0
-725 -770 0
-725 -771 0
-725 -772 0
-725 -773 0
-725 -774 0
-725 -775 0
-725 -776 0
-725 -777 0
-725 -778 0
-725 -779 0
-725 -780 0
-725 -781 0
-725 -782 0
-725 -783 0
-725 -784 0
-725 -785 0
-725 -786 0
-725 -787 0
-725 -788 0
-725 -789 0
-725 -790 0
-725 -791 0
-726 -727 0
-726 -728 0
-726 -729 0
-726 -730 0
-726 -731 0
-726 -732 0
-726 -733 0
-726 -734 0
-726 -735 0
-726 -736 0
-726 -737 0
-726 -738 0
-726 -739 0
-726 -740 0
-726 -741 0
-726 -742 0
-726 -743 0
-726 -744 0
-726 -745 0
-726 -746 0
-726 -747 0
-726 -748 0
-726 -749 0
-726 -750 0
-726 -751 0
-726 -752 0
-726 -753 0
-726 -754 0
-726 -755 0
-726 -756 0
-726 -757 0
-726 -758 0
-726 -759 0
-726 -760 0
-726 -761 0
-726 -762 0
-726 -763 0
-726 -764 0
-726 -765 0
-726 -766 0
-726 -767 0
-726 -768 0
-726 -769 0
-726 -770 0
-726 -771 0
-726 -772 0
-726 -773 0
-726 -774 0
-726 -775 0
-726 -776 0
-726 -777 0
-726 -778 0
-726 -779 0
-726 -780 0
-726 -781 0
-726 -782 0
-726 -783 0
-726 -784 0
-726 -785 0
-726 -786 0
-726 -787 0
-726 -788 0
-726 -789 0
-726 -790 0
-726 -791 0
-727 -728 0
-727 -729 0
-727 -730 0
-727 -731 0
-727 -732 0
-727 -733 0
-727 -734 0
-727 -735 0
-727 -736 0
-727 -737 0
-727 -738 0
-727 -739 0
-727 -740 0
-727 -741 0
-727 -742 0
-727 -743 0
-727 -744 0
-727 -745 0
-727 -746 0
-727 -747 0
-727 -748 0
-727 -749 0
-727 -750 0
-727 -751 0
-727 -752 0
-727 -753 0
-727 -754 0
-727 -755 0
-727 -756 0
-727 -757 0
-727 -758 0
-727 -759 0
-727 -760 0
-727 -761 0
-727 -762 0
-727 -763 0
-727 -764 0
-727 -765 0
-727 -766 0
-727 -767 0
-727 -768 0
-727 -769 0
-727 -770 0
-727 -771 0
-727 -772 0
-727 -773 0
-727 -774 0
-727 -775 0
-727 -776 0
-727 -777 0
-727 -778 0
-727 -779 0
-727 -780 0
-727 -781 0
-727 -782 0
-727 -783 0
-727 -784 0
-727 -785 0
-727 -786 0
-727 -787 0
-727 -788 0
-727 -789 0
-727 -790 0
-727 -791 0
-728 -729 0
-728 -730 0
-728 -731 0
-728 -732 0
-728 -733 0
-728 -734 0
-728 -735 0
-728 -736 0
-728 -737 0
-728 -738 0
-728 -739 0
-728 -740 0
-728 -741 0
-728 -742 0
-728 -743 0
-728 -744 0
-728 -745 0
-728 -746 0
-728 -747 0
-728 -748 0
-728 -749 0
-728 -750 0
-728 -751 0
-728 -752 0
-728 -753 0
-728 -754 0
-728 -755 0
-728 -756 0
-728 -757 0
-728 -758 0
-728 -759 0
-728 -760 0
-728 -761 0
-728 -762 0
-728 -763 0
-728 -764 0
-728 -765 0
-728 -766 0
-728 -767 0
-728 -768 0
-728 -769 0
-728 -770 0
-728 -771 0
-728 -772 0
-728 -773 0
-728 -774 0
-728 -775 0
-728 -776 0
-728 -777 0
-728 -778 0
-728 -779 0
-728 -780 0
-728 -781 0
-728 -782 0
-728 -783 0
-728 -784 0
-728 -785 0
-728 -786 0
-728 -787 0
-728 -788 0
-728 -789 0
-728 -790 0
-728 -791 0
-729 -730 0
-729 -731 0
-729 -732 0
-729 -733 0
-729 -734 0
-729 -735 0
-729 -736 0
-729 -737 0
-729 -738 0
-729 -739 0
-729 -740 0
-729 -741 0
-729 -742 0
-729 -743 0
-729 -744 0
-729 -745 0
-729 -746 0
-729 -747 0
-729 -748 0
-729 -749 0
-729 -750 0
-729 -751 0
-729 -752 0
-729 -753 0
-729 -754 0
-729 -755 0
-729 -756 0
-729 -757 0
-729 -758 0
-729 -759 0
-729 -760 0
-729 -761 0
-729 -762 0
-729 -763 0
-729 -764 0
-729 -765 0
-729 -766 0
-729 -767 0
-729 -768 0
-729 -769 0
-729 -770 0
-729 -771 0
-729 -772 0
-729 -773 0
-729 -774 0
-729 -775 0
-729 -776 0
-729 -777 0
-729 -778 0
-729 -779 0
-729 -780 0
-729 -781 0
-729 -782 0
-729 -783 0
-729 -784 0
-729 -785 0
-729 -786 0
-729 -787 0
-729 -788 0
-729 -789 0
-729 -790 0
-729 -791 0
-730 -731 0
-730 -732 0
-730 -733 0
-730 -734 0
-730 -735 0
-730 -736 0
-730 -737 0
-730 -738 0
-730 -739 0
-730 -740 0
-730 -741 0
-730 -742 0
-730 -743 0
-730 -744 0
-730 -745 0
-730 -746 0
-730 -747 0
-730 -748 0
-730 -749 0
-730 -750 0
-730 -751 0
-730 -752 0
-730 -753 0
-730 -754 0
-730 -755 0
-730 -756 0
-730 -757 0
-730 -758 0
-730 -759 0
-730 -760 0
-730 -761 0
-730 -762 0
-730 -763 0
-730 -764 0
-730 -765 0
-730 -766 0
-730 -767 0
-730 -768 0
-730 -769 0
-730 -770 0
-730 -771 0
-730 -772 0
-730 -773 0
-730 -774 0
-730 -775 0
-730 -776 0
-730 -777 0
-730 -778 0
-730 -779 0
-730 -780 0
-730 -781 0
-730 -782 0
-730 -783 0
-730 -784 0
-730 -785 0
-730 -786 0
-730 -787 0
-730 -788 0
-730 -789 0
-730 -790 0
-730 -791 0
-731 -732 0
-731 -733 0
-731 -734 0
-731 -735 0
-731 -736 0
-731 -737 0
-731 -738 0
-731 -739 0
-731 -740 0
-731 -741 0
-731 -742 0
-731 -743 0
-731 -744 0
-731 -745 0
-731 -746 0
-731 -747 0
-731 -748 0
-731 -749 0
-731 -750 0
-731 -751 0
-731 -752 0
-731 -753 0
-731 -754 0
-731 -755 0
-731 -756 0
-731 -757 0
-731 -758 0
-731 -759 0
-731 -760 0
-731 -761 0
-731 -762 0
-731 -763 0
-731 -764 0
-731 -765 0
-731 -766 0
-731 -767 0
-731 -768 0
-731 -769 0
-731 -770 0
-731 -771 0
-731 -772 0
-731 -773 0
-731 -774 0
-731 -775 0
-731 -776 0
-731 -777 0
-731 -778 0
-731 -779 0
-731 -780 0
-731 -781 0
-731 -782 0
-731 -783 0
-731 -784 0
-731 -785 0
-731 -786 0
-731 -787 0
-731 -788 0
-731 -789 0
-731 -790 0
-731 -791 0
-732 -733 0
-732 -734 0
-732 -735 0
-732 -736 0
-732 -737 0
-732 -738 0
-732 -739 0
-732 -740 0
-732 -741 0
-732 -742 0
-732 -743 0
-732 -744 0
-732 -745 0
-732 -746 0
-732 -747 0
-732 -748 0
-732 -749 0
-732 -750 0
-732 -751 0
-732 -752 0
-732 -753 0
-732 -754 0
-732 -755 0
-732 -756 0
-732 -757 0
-732 -758 0
-732 -759 0
-732 -760 0
-732 -761 0
-732 -762 0
-732 -763 0
-732 -764 0
-732 -765 0
-732 -766 0
-732 -767 0
-732 -768 0
-732 -769 0
-732 -770 0
-732 -771 0
-732 -772 0
-732 -773 0
-732 -774 0
-732 -775 0
-732 -776 0
-732 -777 0
-732 -778 0
-732 -779 0
-732 -780 0
-732 -781 0
-732 -782 0
-732 -783 0
-732 -784 0
-732 -785 0
-732 -786 0
-732 -787 0
-732 -788 0
-732 -789 0
-732 -790 0
-732 -791 0
-733 -734 0
-733 -735 0
-733 -736 0
-733 -737 0
-733 -738 0
-733 -739 0
-733 -740 0
-733 -741 0
-733 -742 0
-733 -743 0
-733 -744 0
-733 -745 0
-733 -746 0
-733 -747 0
-733 -748 0
-733 -749 0
-733 -750 0
-733 -751 0
-733 -752 0
-733 -753 0
-733 -754 0
-733 -755 0
-733 -756 0
-733 -757 0
-733 -758 0
-733 -759 0
-733 -760 0
-733 -761 0
-733 -762 0
-733 -763 0
-733 -764 0
-733 -765 0
-733 -766 0
-733 -767 0
-733 -768 0
-733 -769 0
-733 -770 0
-733 -771 0
-733 -772 0
-733 -773 0
-733 -774 0
-733 -775 0
-733 -776 0
-733 -777 0
-733 -778 0
-733 -779 0
-733 -780 0
-733 -781 0
-733 -782 0
-733 -783 0
-733 -784 0
-733 -785 0
-733 -786 0
-733 -787 0
-733 -788 0
-733 -789 0
-733 -790 0
-733 -791 0
-734 -735 0
-734 -736 0
-734 -737 0
-734 -738 0
-734 -739 0
-734 -740 0
-734 -741 0
-734 -742 0
-734 -743 0
-734 -744 0
-734 -745 0
-734 -746 0
-734 -747 0
-734 -748 0
-734 -749 0
-734 -750 0
-734 -751 0
-734 -752 0
-734 -753 0
-734 -754 0
-734 -755 0
-734 -756 0
-734 -757 0
-734 -758 0
-734 -759 0
-734 -760 0
-734 -761 0
-734 -762 0
-734 -763 0
-734 -764 0
-734 -765 0
-734 -766 0
-734 -767 0
-734 -768 0
-734 -769 0
-734 -770 0
-734 -771 0
-734 -772 0
-734 -773 0
-734 -774 0
-734 -775 0
-734 -776 0
-734 -777 0
-734 -778 0
-734 -779 0
-734 -780 0
-734 -781 0
-734 -782 0
-734 -783 0
-734 -784 0
-734 -785 0
-734 -786 0
-734 -787 0
-734 -788 0
-734 -789 0
-734 -790 0
-734 -791 0
-735 -736 0
-735 -737 0
-735 -738 0
-735 -739 0
-735 -740 0
-735 -741 0
-735 -742 0
-735 -743 0
-735 -744 0
-735 -745 0
-735 -746 0
-735 -747 0
-735 -748 0
-735 -749 0
-735 -750 0
-735 -751 0
-735 -752 0
-735 -753 0
-735 -754 0
-735 -755 0
-735 -756 0
-735 -757 0
-735 -758 0
-735 -759 0
-735 -760 0
-735 -761 0
-735 -762 0
-735 -763 0
-735 -764 0
-735 -765 0
-735 -766 0
-735 -767 0
-735 -768 0
-735 -769 0
-735 -770 0
-735 -771 0
-735 -772 0
-735 -773 0
-735 -774 0
-735 -775 0
-735 -776 0
-735 -777 0
-735 -778 0
-735 -779 0
-735 -780 0
-735 -781 0
-735 -782 0
-735 -783 0
-735 -784 0
-735 -785 0
-735 -786 0
-735 -787 0
-735 -788 0
-735 -789 0
-735 -790 0
-735 -791 0
-736 -737 0
-736 -738 0
-736 -739 0
-736 -740 0
-736 -741 0
-736 -742 0
-736 -743 0
-736 -744 0
-736 -745 0
-736 -746 0
-736 -747 0
-736 -748 0
-736 -749 0
-736 -750 0
-736 -751 0
-736 -752 0
-736 -753 0
-736 -754 0
-736 -755 0
-736 -756 0
-736 -757 0
-736 -758 0
-736 -759 0
-736 -760 0
-736 -761 0
-736 -762 0
-736 -763 0
-736 -764 0
-736 -765 0
-736 -766 0
-736 -767 0
-736 -768 0
-736 -769 0
-736 -770 0
-736 -771 0
-736 -772 0
-736 -773 0
-736 -774 0
-736 -775 0
-736 -776 0
-736 -777 0
-736 -778 0
-736 -779 0
-736 -780 0
-736 -781 0
-736 -782 0
-736 -783 0
-736 -784 0
-736 -785 0
-736 -786 0
-736 -787 0
-736 -788 0
-736 -789 0
-736 -790 0
-736 -791 0
-737 -738 0
-737 -739 0
-737 -740 0
-737 -741 0
-737 -742 0
-737 -743 0
-737 -744 0
-737 -745 0
-737 -746 0
-737 -747 0
-737 -748 0
-737 -749 0
-737 -750 0
-737 -751 0
-737 -752 0
-737 -753 0
-737 -754 0
-737 -755 0
-737 -756 0
-737 -757 0
-737 -758 0
-737 -759 0
-737 -760 0
-737 -761 0
-737 -762 0
-737 -763 0
-737 -764 0
-737 -765 0
-737 -766 0
-737 -767 0
-737 -768 0
-737 -769 0
-737 -770 0
-737 -771 0
-737 -772 0
-737 -773 0
-737 -774 0
-737 -775 0
-737 -776 0
-737 -777 0
-737 -778 0
-737 -779 0
-737 -780 0
-737 -781 0
-737 -782 0
-737 -783 0
-737 -784 0
-737 -785 0
-737 -786 0
-737 -787 0
-737 -788 0
-737 -789 0
-737 -790 0
-737 -791 0
-738 -739 0
-738 -740 0
-738 -741 0
-738 -742 0
-738 -743 0
-738 -744 0
-738 -745 0
-738 -746 0
-738 -747 0
-738 -748 0
-738 -749 0
-738 -750 0
-738 -751 0
-738 -752 0
-738 -753 0
-738 -754 0
-738 -755 0
-738 -756 0
-738 -757 0
-738 -758 0
-738 -759 0
-738 -760 0
-738 -761 0
-738 -762 0
-738 -763 0
-738 -764 0
-738 -765 0
-738 -766 0
-738 -767 0
-738 -768 0
-738 -769 0
-738 -770 0
-738 -771 0
-738 -772 0
-738 -773 0
-738 -774 0
-738 -775 0
-738 -776 0
-738 -777 0
-738 -778 0
-738 -779 0
-738 -780 0
-738 -781 0
-738 -782 0
-738 -783 0
-738 -784 0
-738 -785 0
-738 -786 0
-738 -787 0
-738 -788 0
-738 -789 0
-738 -790 0
-738 -791 0
-739 -740 0
-739 -741 0
-739 -742 0
-739 -743 0
-739 -744 0
-739 -745 0
-739 -746 0
-739 -747 0
-739 -748 0
-739 -749 0
-739 -750 0
-739 -751 0
-739 -752 0
-739 -753 0
-739 -754 0
-739 -755 0
-739 -756 0
-739 -757 0
-739 -758 0
-739 -759 0
-739 -760 0
-739 -761 0
-739 -762 0
-739 -763 0
-739 -764 0
-739 -765 0
-739 -766 0
-739 -767 0
-739 -768 0
-739 -769 0
-739 -770 0
-739 -771 0
-739 -772 0
-739 -773 0
-739 -774 0
-739 -775 0
-739 -776 0
-739 -777 0
-739 -778 0
-739 -779 0
-739 -780 0
-739 -781 0
-739 -782 0
-739 -783 0
-739 -784 0
-739 -785 0
-739 -786 0
-739 -787 0
-739 -788 0
-739 -789 0
-739 -790 0
-739 -791 0
-740 -741 0
-740 -742 0
-740 -743 0
-740 -744 0
-740 -745 0
-740 -746 0
-740 -747 0
-740 -748 0
-740 -749 0
-740 -750 0
-740 -751 0
-740 -752 0
-740 -753 0
-740 -754 0
-740 -755 0
-740 -756 0
-740 -757 0
-740 -758 0
-740 -759 0
-740 -760 0
-740 -761 0
-740 -762 0
-740 -763 0
-740 -764 0
-740 -765 0
-740 -766 0
-740 -767 0
-740 -768 0
-740 -769 0
-740 -770 0
-740 -771 0
-740 -772 0
-740 -773 0
-740 -774 0
-740 -775 0
-740 -776 0
-740 -777 0
-740 -778 0
-740 -779 0
-740 -780 0
-740 -781 0
-740 -782 0
-740 -783 0
-740 -784 0
-740 -785 0
-740 -786 0
-740 -787 0
-740 -788 0
-740 -789 0
-740 -790 0
-740 -791 0
-741 -742 0
-741 -743 0
-741 -744 0
-741 -745 0
-741 -746 0
-741 -747 0
-741 -748 0
-741 -749 0
-741 -750 0
-741 -751 0
-741 -752 0
-741 -753 0
-741 -754 0
-741 -755 0
-741 -756 0
-741 -757 0
-741 -758 0
-741 -759 0
-741 -760 0
-741 -761 0
-741 -762 0
-741 -763 0
-741 -764 0
-741 -765 0
-741 -766 0
-741 -767 0
-741 -768 0
-741 -769 0
-741 -770 0
-741 -771 0
-741 -772 0
-741 -773 0
-741 -774 0
-741 -775 0
-741 -776 0
-741 -777 0
-741 -778 0
-741 -779 0
-741 -780 0
-741 -781 0
-741 -782 0
-741 -783 0
-741 -784 0
-741 -785 0
-741 -786 0
-741 -787 0
-741 -788 0
-741 -789 0
-741 -790 0
-741 -791 0
-742 -743 0
-742 -744 0
-742 -745 0
-742 -746 0
-742 -747 0
-742 -748 0
-742 -749 0
-742 -750 0
-742 -751 0
-742 -752 0
-742 -753 0
-742 -754 0
-742 -755 0
-742 -756 0
-742 -757 0
-742 -758 0
-742 -759 0
-742 -760 0
-742 -761 0
-742 -762 0
-742 -763 0
-742 -764 0
-742 -765 0
-742 -766 0
-742 -767 0
-742 -768 0
-742 -769 0
-742 -770 0
-742 -771 0
-742 -772 0
-742 -773 0
-742 -774 0
-742 -775 0
-742 -776 0
-742 -777 0
-742 -778 0
-742 -779 0
-742 -780 0
-742 -781 0
-742 -782 0
-742 -783 0
-742 -784 0
-742 -785 0
-742 -786 0
-742 -787 0
-742 -788 0
-742 -789 0
-742 -790 0
-742 -791 0
-743 -744 0
-743 -745 0
-743 -746 0
-743 -747 0
-743 -748 0
-743 -749 0
-743 -750 0
-743 -751 0
-743 -752 0
-743 -753 0
-743 -754 0
-743 -755 0
-743 -756 0
-743 -757 0
-743 -758 0
-743 -759 0
-743 -760 0
-743 -761 0
-743 -762 0
-743 -763 0
-743 -764 0
-743 -765 0
-743 -766 0
-743 -767 0
-743 -768 0
-743 -769 0
-743 -770 0
-743 -771 0
-743 -772 0
-743 -773 0
-743 -774 0
-743 -775 0
-743 -776 0
-743 -777 0
-743 -778 0
-743 -779 0
-743 -780 0
-743 -781 0
-743 -782 0
-743 -783 0
-743 -784 0
-743 -785 0
-743 -786 0
-743 -787 0
-743 -788 0
-743 -789 0
-743 -790 0
-743 -791 0
-744 -745 0
-744 -746 0
-744 -747 0
-744 -748 0
-744 -749 0
-744 -750 0
-744 -751 0
-744 -752 0
-744 -753 0
-744 -754 0
-744 -755 0
-744 -756 0
-744 -757 0
-744 -758 0
-744 -759 0
-744 -760 0
-744 -761 0
-744 -762 0
-744 -763 0
-744 -764 0
-744 -765 0
-744 -766 0
-744 -767 0
-744 -768 0
-744 -769 0
-744 -770 0
-744 -771 0
-744 -772 0
-744 -773 0
-744 -774 0
-744 -775 0
-744 -776 0
-744 -777 0
-744 -778 0
-744 -779 0
-744 -780 0
-744 -781 0
-744 -782 0
-744 -783 0
-744 -784 0
-744 -785 0
-744 -786 0
-744 -787 0
-744 -788 0
-744 -789 0
-744 -790 0
-744 -791 0
-745 -746 0
-745 -747 0
-745 -748 0
-745 -749 0
-745 -750 0
-745 -751 0
-745 -752 0
-745 -753 0
-745 -754 0
-745 -755 0
-745 -756 0
-745 -757 0
-745 -758 0
-745 -759 0
-745 -760 0
-745 -761 0
-745 -762 0
-745 -763 0
-745 -764 0
-745 -765 0
-745 -766 0
-745 -767 0
-745 -768 0
-745 -769 0
-745 -770 0
-745 -771 0
-745 -772 0
-745 -773 0
-745 -774 0
-745 -775 0
-745 -776 0
-745 -777 0
-745 -778 0
-745 -779 0
-745 -780 0
-745 -781 0
-745 -782 0
-745 -783 0
-745 -784 0
-745 -785 0
-745 -786 0
-745 -787 0
-745 -788 0
-745 -789 0
-745 -790 0
-745 -791 0
-746 -747 0
-746 -748 0
-746 -749 0
-746 -750 0
-746 -751 0
-746 -752 0
-746 -753 0
-746 -754 0
-746 -755 0
-746 -756 0
-746 -757 0
-746 -758 0
-746 -759 0
-746 -760 0
-746 -761 0
-746 -762 0
-746 -763 0
-746 -764 0
-746 -765 0
-746 -766 0
-746 -767 0
-746 -768 0
-746 -769 0
-746 -770 0
-746 -771 0
-746 -772 0
-746 -773 0
-746 -774 0
-746 -775 0
-746 -776 0
-746 -777 0
-746 -778 0
-746 -779 0
-746 -780 0
-746 -781 0
-746 -782 0
-746 -783 0
-746 -784 0
-746 -785 0
-746 -786 0
-746 -787 0
-746 -788 0
-746 -789 0
-746 -790 0
-746 -791 0
-747 -748 0
-747 -749 0
-747 -750 0
-747 -751 0
-747 -752 0
-747 -753 0
-747 -754 0
-747 -755 0
-747 -756 0
-747 -757 0
-747 -758 0
-747 -759 0
-747 -760 0
-747 -761 0
-747 -762 0
-747 -763 0
-747 -764 0
-747 -765 0
-747 -766 0
-747 -767 0
-747 -768 0
-747 -769 0
-747 -770 0
-747 -771 0
-747 -772 0
-747 -773 0
-747 -774 0
-747 -775 0
-747 -776 0
-747 -777 0
-747 -778 0
-747 -779 0
-747 -780 0
-747 -781 0
-747 -782 0
-747 -783 0
-747 -784 0
-747 -785 0
-747 -786 0
-747 -787 0
-747 -788 0
-747 -789 0
-747 -790 0
-747 -791 0
-748 -749 0
-748 -750 0
-748 -751 0
-748 -752 0
-748 -753 0
-748 -754 0
-748 -755 0
-748 -756 0
-748 -757 0
-748 -758 0
-748 -759 0
-748 -760 0
-748 -761 0
-748 -762 0
-748 -763 0
-748 -764 0
-748 -765 0
-748 -766 0
-748 -767 0
-748 -768 0
-748 -769 0
-748 -770 0
-748 -771 0
-748 -772 0
-748 -773 0
-748 -774 0
-748 -775 0
-748 -776 0
-748 -777 0
-748 -778 0
-748 -779 0
-748 -780 0
-748 -781 0
-748 -782 0
-748 -783 0
-748 -784 0
-748 -785 0
-748 -786 0
-748 -787 0
-748 -788 0
-748 -789 0
-748 -790 0
-748 -791 0
-749 -750 0
-749 -751 0
-749 -752 0
-749 -753 0
-749 -754 0
-749 -755 0
-749 -756 0
-749 -757 0
-749 -758 0
-749 -759 0
-749 -760 0
-749 -761 0
-749 -762 0
-749 -763 0
-749 -764 0
-749 -765 0
-749 -766 0
-749 -767 0
-749 -768 0
-749 -769 0
-749 -770 0
-749 -771 0
-749 -772 0
-749 -773 0
-749 -774 0
-749 -775 0
-749 -776 0
-749 -777 0
-749 -778 0
-749 -779 0
-749 -780 0
-749 -781 0
-749 -782 0
-749 -783 0
-749 -784 0
-749 -785 0
-749 -786 0
-749 -787 0
-749 -788 0
-749 -789 0
-749 -790 0
-749 -791 0
-750 -751 0
-750 -752 0
-750 -753 0
-750 -754 0
-750 -755 0
-750 -756 0
-750 -757 0
-750 -758 0
-750 -759 0
-750 -760 0
-750 -761 0
-750 -762 0
-750 -763 0
-750 -764 0
-750 -765 0
-750 -766 0
-750 -767 0
-750 -768 0
-750 -769 0
-750 -770 0
-750 -771 0
-750 -772 0
-750 -773 0
-750 -774 0
-750 -775 0
-750 -776 0
-750 -777 0
-750 -778 0
-750 -779 0
-750 -780 0
-750 -781 0
-750 -782 0
-750 -783 0
-750 -784 0
-750 -785 0
-750 -786 0
-750 -787 0
-750 -788 0
-750 -789 0
-750 -790 0
-750 -791 0
-751 -752 0
-751 -753 0
-751 -754 0
-751 -755 0
-751 -756 0
-751 -757 0
-751 -758 0
-751 -759 0
-751 -760 0
-751 -761 0
-751 -762 0
-751 -763 0
-751 -764 0
-751 -765 0
-751 -766 0
-751 -767 0
-751 -768 0
-751 -769 0
-751 -770 0
-751 -771 0
-751 -772 0
-751 -773 0
-751 -774 0
-751 -775 0
-751 -776 0
-751 -777 0
-751 -778 0
-751 -779 0
-751 -780 0
-751 -781 0
-751 -782 0
-751 -783 0
-751 -784 0
-751 -785 0
-751 -786 0
-751 -787 0
-751 -788 0
-751 -789 0
-751 -790 0
-751 -791 0
-752 -753 0
-752 -754 0
-752 -755 0
-752 -756 0
-752 -757 0
-752 -758 0
-752 -759 0
-752 -760 0
-752 -761 0
-752 -762 0
-752 -763 0
-752 -764 0
-752 -765 0
-752 -766 0
-752 -767 0
-752 -768 0
-752 -769 0
-752 -770 0
-752 -771 0
-752 -772 0
-752 -773 0
-752 -774 0
-752 -775 0
-752 -776 0
-752 -777 0
-752 -778 0
-752 -779 0
-752 -780 0
-752 -781 0
-752 -782 0
-752 -783 0
-752 -784 0
-752 -785 0
-752 -786 0
-752 -787 0
-752 -788 0
-752 -789 0
-752 -790 0
-752 -791 0
-753 -754 0
-753 -755 0
-753 -756 0
-753 -757 0
-753 -758 0
-753 -759 0
-753 -760 0
-753 -761 0
-753 -762 0
-753 -763 0
-753 -764 0
-753 -765 0
-753 -766 0
-753 -767 0
-753 -768 0
-753 -769 0
-753 -770 0
-753 -771 0
-753 -772 0
-753 -773 0
-753 -774 0
-753 -775 0
-753 -776 0
-753 -777 0
-753 -778 0
-753 -779 0
-753 -780 0
-753 -781 0
-753 -782 0
-753 -783 0
-753 -784 0
-753 -785 0
-753 -786 0
-753 -787 0
-753 -788 0
-753 -789 0
-753 -790 0
-753 -791 0
-754 -755 0
-754 -756 0
-754 -757 0
-754 -758 0
-754 -759 0
-754 -760 0
-754 -761 0
-754 -762 0
-754 -763 0
-754 -764 0
-754 -765 0
-754 -766 0
-754 -767 0
-754 -768 0
-754 -769 0
-754 -770 0
-754 -771 0
-754 -772 0
-754 -773 0
-754 -774 0
-754 -775 0
-754 -776 0
-754 -777 0
-754 -778 0
-754 -779 0
-754 -780 0
-754 -781 0
-754 -782 0
-754 -783 0
-754 -784 0
-754 -785 0
-754 -786 0
-754 -787 0
-754 -788 0
-754 -789 0
-754 -790 0
-754 -791 0
-755 -756 0
-755 -757 0
-755 -758 0
-755 -759 0
-755 -760 0
-755 -761 0
-755 -762 0
-755 -763 0
-755 -764 0
-755 -765 0
-755 -766 0
-755 -767 0
-755 -768 0
-755 -769 0
-755 -770 0
-755 -771 0
-755 -772 0
-755 -773 0
-755 -774 0
-755 -775 0
-755 -776 0
-755 -777 0
-755 -778 0
-755 -779 0
-755 -780 0
-755 -781 0
-755 -782 0
-755 -783 0
-755 -784 0
-755 -785 0
-755 -786 0
-755 -787 0
-755 -788 0
-755 -789 0
-755 -790 0
-755 -791 0
-756 -757 0
-756 -758 0
-756 -759 0
-756 -760 0
-756 -761 0
-756 -762 0
-756 -763 0
-756 -764 0
-756 -765 0
-756 -766 0
-756 -767 0
-756 -768 0
-756 -769 0
-756 -770 0
-756 -771 0
-756 -772 0
-756 -773 0
-756 -774 0
-756 -775 0
-756 -776 0
-756 -777 0
-756 -778 0
-756 -779 0
-756 -780 0
-756 -781 0
-756 -782 0
-756 -783 0
-756 -784 0
-756 -785 0
-756 -786 0
-756 -787 0
-756 -788 0
-756 -789 0
-756 -790 0
-756 -791 0
-757 -758 0
-757 -759 0
-757 -760 0
-757 -761 0
-757 -762 0
-757 -763 0
-757 -764 0
-757 -765 0
-757 -766 0
-757 -767 0
-757 -768 0
-757 -769 0
-757 -770 0
-757 -771 0
-757 -772 0
-757 -773 0
-757 -774 0
-757 -775 0
-757 -776 0
-757 -777 0
-757 -778 0
-757 -779 0
-757 -780 0
-757 -781 0
-757 -782 0
-757 -783 0
-757 -784 0
-757 -785 0
-757 -786 0
-757 -787 0
-757 -788 0
-757 -789 0
-757 -790 0
-757 -791 0
-758 -759 0
-758 -760 0
-758 -761 0
-758 -762 0
-758 -763 0
-758 -764 0
-758 -765 0
-758 -766 0
-758 -767 0
-758 -768 0
-758 -769 0
-758 -770 0
-758 -771 0
-758 -772 0
-758 -773 0
-758 -774 0
-758 -775 0
-758 -776 0
-758 -777 0
-758 -778 0
-758 -779 0
-758 -780 0
-758 -781 0
-758 -782 0
-758 -783 0
-758 -784 0
-758 -785 0
-758 -786 0
-758 -787 0
-758 -788 0
-758 -789 0
-758 -790 0
-758 -791 0
-759 -760 0
-759 -761 0
-759 -762 0
-759 -763 0
-759 -764 0
-759 -765 0
-759 -766 0
-759 -767 0
-759 -768 0
-759 -769 0
-759 -770 0
-759 -771 0
-759 -772 0
-759 -773 0
-759 -774 0
-759 -775 0
-759 -776 0
-759 -777 0
-759 -778 0
-759 -779 0
-759 -780 0
-759 -781 0
-759 -782 0
-759 -783 0
-759 -784 0
-759 -785 0
-759 -786 0
-759 -787 0
-759 -788 0
-759 -789 0
-759 -790 0
-759 -791 0
-760 -761 0
-760 -762 0
-760 -763 0
-760 -764 0
-760 -765 0
-760 -766 0
-760 -767 0
-760 -768 0
-760 -769 0
-760 -770 0
-760 -771 0
-760 -772 0
-760 -773 0
-760 -774 0
-760 -775 0
-760 -776 0
-760 -777 0
-760 -778 0
-760 -779 0
-760 -780 0
-760 -781 0
-760 -782 0
-760 -783 0
-760 -784 0
-760 -785 0
-760 -786 0
-760 -787 0
-760 -788 0
-760 -789 0
-760 -790 0
-760 -791 0
-761 -762 0
-761 -763 0
-761 -764 0
-761 -765 0
-761 -766 0
-761 -767 0
-761 -768 0
-761 -769 0
-761 -770 0
-761 -771 0
-761 -772 0
-761 -773 0
-761 -774 0
-761 -775 0
-761 -776 0
-761 -777 0
-761 -778 0
-761 -779 0
-761 -780 0
-761 -781 0
-761 -782 0
-761 -783 0
-761 -784 0
-761 -785 0
-761 -786 0
-761 -787 0
-761 -788 0
-761 -789 0
-761 -790 0
-761 -791 0
-762 -763 0
-762 -764 0
-762 -765 0
-762 -766 0
-762 -767 0
-762 -768 0
-762 -769 0
-762 -770 0
-762 -771 0
-762 -772 0
-762 -773 0
-762 -774 0
-762 -775 0
-762 -776 0
-762 -777 0
-762 -778 0
-762 -779 0
-762 -780 0
-762 -781 0
-762 -782 0
-762 -783 0
-762 -784 0
-762 -785 0
-762 -786 0
-762 -787 0
-762 -788 0
-762 -789 0
-762 -790 0
-762 -791 0
-763 -764 0
-763 -765 0
-763 -766 0
-763 -767 0
-763 -768 0
-763 -769 0
-763 -770 0
-763 -771 0
-763 -772 0
-763 -773 0
-763 -774 0
-763 -775 0
-763 -776 0
-763 -777 0
-763 -778 0
-763 -779 0
-763 -780 0
-763 -781 0
-763 -782 0
-763 -783 0
-763 -784 0
-763 -785 0
-763 -786 0
-763 -787 0
-763 -788 0
-763 -789 0
-763 -790 0
-763 -791 0
-764 -765 0
-764 -766 0
-764 -767 0
-764 -768 0
-764 -769 0
-764 -770 0
-764 -771 0
-764 -772 0
-764 -773 0
-764 -774 0
-764 -775 0
-764 -776 0
-764 -777 0
-764 -778 0
-764 -779 0
-764 -780 0
-764 -781 0
-764 -782 0
-764 -783 0
-764 -784 0
-764 -785 0
-764 -786 0
-764 -787 0
-764 -788 0
-764 -789 0
-764 -790 0
-764 -791 0
-765 -766 0
-765 -767 0
-765 -768 0
-765 -769 0
-765 -770 0
-765 -771 0
-765 -772 0
-765 -773 0
-765 -774 0
-765 -775 0
-765 -776 0
-765 -777 0
-765 -778 0
-765 -779 0
-765 -780 0
-765 -781 0
-765 -782 0
-765 -783 0
-765 -784 0
-765 -785 0
-765 -786 0
-765 -787 0
-765 -788 0
-765 -789 0
-765 -790 0
-765 -791 0
-766 -767 0
-766 -768 0
-766 -769 0
-766 -770 0
-766 -771 0
-766 -772 0
-766 -773 0
-766 -774 0
-766 -775 0
-766 -776 0
-766 -777 0
-766 -778 0
-766 -779 0
-766 -780 0
-766 -781 0
-766 -782 0
-766 -783 0
-766 -784 0
-766 -785 0
-766 -786 0
-766 -787 0
-766 -788 0
-766 -789 0
-766 -790 0
-766 -791 0
-767 -768 0
-767 -769 0
-767 -770 0
-767 -771 0
-767 -772 0
-767 -773 0
-767 -774 0
-767 -775 0
-767 -776 0
-767 -777 0
-767 -778 0
-767 -779 0
-767 -780 0
-767 -781 0
-767 -782 0
-767 -783 0
-767 -784 0
-767 -785 0
-767 -786 0
-767 -787 0
-767 -788 0
-767 -789 0
-767 -790 0
-767 -791 0
-768 -769 0
-768 -770 0
-768 -771 0
-768 -772 0
-768 -773 0
-768 -774 0
-768 -775 0
-768 -776 0
-768 -777 0
-768 -778 0
-768 -779 0
-768 -780 0
-768 -781 0
-768 -782 0
-768 -783 0
-768 -784 0
-768 -785 0
-768 -786 0
-768 -787 0
-768 -788 0
-768 -789 0
-768 -790 0
-768 -791 0
-769 -770 0
-769 -771 0
-769 -772 0
-769 -773 0
-769 -774 0
-769 -775 0
-769 -776 0
-769 -777 0
-769 -778 0
-769 -779 0
-769 -780 0
-769 -781 0
-769 -782 0
-769 -783 0
-769 -784 0
-769 -785 0
-769 -786 0
-769 -787 0
-769 -788 0
-769 -789 0
-769 -790 0
-769 -791 0
-770 -771 0
-770 -772 0
-770 -773 0
-770 -774 0
-770 -775 0
-770 -776 0
-770 -777 0
-770 -778 0
-770 -779 0
-770 -780 0
-770 -781 0
-770 -782 0
-770 -783 0
-770 -784 0
-770 -785 0
-770 -786 0
-770 -787 0
-770 -788 0
-770 -789 0
-770 -790 0
-770 -791 0
-771 -772 0
-771 -773 0
-771 -774 0
-771 -775 0
-771 -776 0
-771 -777 0
-771 -778 0
-771 -779 0
-771 -780 0
-771 -781 0
-771 -782 0
-771 -783 0
-771 -784 0
-771 -785 0
-771 -786 0
-771 -787 0
-771 -788 0
-771 -789 0
-771 -790 0
-771 -791 0
-772 -773 0
-772 -774 0
-772 -775 0
-772 -776 0
-772 -777 0
-772 -778 0
-772 -779 0
-772 -780 0
-772 -781 0
-772 -782 0
-772 -783 0
-772 -784 0
-772 -785 0
-772 -786 0
-772 -787 0
-772 -788 0
-772 -789 0
-772 -790 0
-772 -791 0
-773 -774 0
-773 -775 0
-773 -776 0
-773 -777 0
-773 -778 0
-773 -779 0
-773 -780 0
-773 -781 0
-773 -782 0
-773 -783 0
-773 -784 0
-773 -785 0
-773 -786 0
-773 -787 0
-773 -788 0
-773 -789 0
-773 -790 0
-773 -791 0
-774 -775 0
-774 -776 0
-774 -777 0
-774 -778 0
-774 -779 0
-774 -780 0
-774 -781 0
-774 -782 0
-774 -783 0
-774 -784 0
-774 -785 0
-774 -786 0
-774 -787 0
-774 -788 0
-774 -789 0
-774 -790 0
-774 -791 0
-775 -776 0
-775 -777 0
-775 -778 0
-775 -779 0
-775 -780 0
-775 -781 0
-775 -782 0
-775 -783 0
-775 -784 0
-775 -785 0
-775 -786 0
-775 -787 0
-775 -788 0
-775 -789 0
-775 -790 0
-775 -791 0
-776 -777 0
-776 -778 0
-776 -779 0
-776 -780 0
-776 -781 0
-776 -782 0
-776 -783 0
-776 -784 0
-776 -785 0
-776 -786 0
-776 -787 0
-776 -788 0
-776 -789 0
-776 -790 0
-776 -791 0
-777 -778 0
-777 -779 0
-777 -780 0
-777 -781 0
-777 -782 0
-777 -783 0
-777 -784 0
-777 -785 0
-777 -786 0
-777 -787 0
-777 -788 0
-777 -789 0
-777 -790 0
-777 -791 0
-778 -779 0
-778 -780 0
-778 -781 0
-778 -782 0
-778 -783 0
-778 -784 0
-778 -785 0
-778 -786 0
-778 -787 0
-778 -788 0
-778 -789 0
-778 -790 0
-778 -791 0
-779 -780 0
-779 -781 0
-779 -782 0
-779 -783 0
-779 -784 0
-779 -785 0
-779 -786 0
-779 -787 0
-779 -788 0
-779 -789 0
-779 -790 0
-779 -791 0
-780 -781 0
-780 -782 0
-780 -783 0
-780 -784 0
-780 -785 0
-780 -786 0
-780 -787 0
-780 -788 0
-780 -789 0
-780 -790 0
-780 -791 0
-781 -782 0
-781 -783 0
-781 -784 0
-781 -785 0
-781 -786 0
-781 -787 0
-781 -788 0
-781 -789 0
-781 -790 0
-781 -791 0
-782 -783 0
-782 -784 0
-782 -785 0
-782 -786 0
-782 -787 0
-782 -788 0
-782 -789 0
-782 -790 0
-782 -791 0
-783 -784 0
-783 -785 0
-783 -786 0
-783 -787 0
-783 -788 0
-783 -789 0
-783 -790 0
-783 -791 0
-784 -785 0
-784 -786 0
-784 -787 0
-784 -788 0
-784 -789 0
-784 -790 0
-784 -791 0
-785 -786 0
-785 -787 0
-785 -788 0
-785 -789 0
-785 -790 0
-785 -791 0
-786 -787 0
-786 -788 0
-786 -789 0
-786 -790 0
-786 -791 0
-787 -788 0
-787 -789 0
-787 -790 0
-787 -791 0
-788 -789 0
-788 -790 0
-788 -791 0
-789 -790 0
-789 -791 0
-790 -791 0
-1 -8 -23 -28 1632 0
-1 -9 -23 -29 1632 0
-1 -10 -23 -30 1632 0
-2 -8 -23 -28 1632 0
-2 -9 -23 -29 1632 0
-2 -10 -23 -30 1632 0
-2 -8 -24 -28 1632 0
-2 -9 -24 -29 1632 0
-2 -10 -24 -30 1632 0
-3 -8 -24 -28 1632 0
-3 -9 -24 -29 1632 0
-3 -10 -24 -30 1632 0
-3 -8 -25 -28 1632 0
-3 -9 -25 -29 1632 0
-3 -10 -25 -30 1632 0
-4 -8 -25 -28 1632 0
-4 -9 -25 -29 1632 0
-4 -10 -25 -30 1632 0
-4 -8 -26 -28 1632 0
-4 -9 -26 -29 1632 0
-4 -10 -26 -30 1632 0
-5 -8 -26 -28 1632 0
-5 -9 -26 -29 1632 0
-5 -10 -26 -30 1632 0
-5 -8 -27 -28 1632 0
-5 -9 -27 -29 1632 0
-5 -10 -27 -30 1632 0
-6 -8 -27 -28 1632 0
-6 -9 -27 -29 1632 0
-6 -10 -27 -30 1632 0
-1632 0
-42 -49 -64 -69 1633 0
-42 -50 -64 -70 1633 0
-42 -51 -64 -71 1633 0
-43 -49 -64 -69 1633 0
-43 -50 -64 -70 1633 0
-43 -51 -64 -71 1633 0
-43 -49 -65 -69 1633 0
-43 -50 -65 -70 1633 0
-43 -51 -65 -71 1633 0
-44 -49 -65 -69 1633 0
-44 -50 -65 -70 1633 0
-44 -51 -65 -71 1633 0
-44 -49 -66 -69 1633 0
-44 -50 -66 -70 1633 0
-44 -51 -66 -71 1633 0
-45 -49 -66 -69 1633 0
-45 -50 -66 -70 1633 0
-45 -51 -66 -71 1633 0
-45 -49 -67 -69 1633 0
-45 -50 -67 -70 1633 0
-45 -51 -67 -71 1633 0
-46 -49 -67 -69 1633 0
-46 -50 -67 -70 1633 0
-46 -51 -67 -71 1633 0
-46 -49 -68 -69 1633 0
-46 -50 -68 -70 1633 0
-46 -51 -68 -71 1633 0
-47 -49 -68 -69 1633 0
-47 -50 -68 -70 1633 0
-47 -51 -68 -71 1633 0
-1633 37 0
-83 -90 -105 -110 1634 0
-83 -91 -105 -111 1634 0
-83 -92 -105 -112 1634 0
-84 -90 -105 -110 1634 0
-84 -91 -105 -111 1634 0
-84 -92 -105 -112 1634 0
-84 -90 -106 -110 1634 0
-84 -91 -106 -111 1634 0
-84 -92 -106 -112 1634 0
-85 -90 -106 -110 1634 0
-85 -91 -106 -111 1634 0
-85 -92 -106 -112 1634 0
-85 -90 -107 -110 1634 0
-85 -91 -107 -111 1634 0
-85 -92 -107 -112 1634 0
-86 -90 -107 -110 1634 0
-86 -91 -107 -111 1634 0
-86 -92 -107 -112 1634 0
-86 -90 -108 -110 1634 0
-86 -91 -108 -111 1634 0
-86 -92 -108 -112 1634 0
-87 -90 -108 -110 1634 0
-87 -91 -108 -111 1634 0
-87 -92 -108 -112 1634 0
-87 -90 -109 -110 1634 0
-87 -91 -109 -111 1634 0
-87 -92 -109 -112 1634 0
-88 -90 -109 -110 1634 0
-88 -91 -109 -111 1634 0
-88 -92 -109 -112 1634 0
-1634 37 78 0
-124 -131 -146 -151 1635 0
-124 -132 -146 -152 1635 0
-124 -133 -146 -153 1635 0
-125 -131 -146 -151 1635 0
-125 -132 -146 -152 1635 0
-125 -133 -146 -153 1635 0
-125 -131 -147 -151 1635 0
-125 -132 -147 -152 1635 0
-125 -133 -147 -153 1635 0
-126 -131 -147 -151 1635 0
-126 -132 -147 -152 1635 0
-126 -133 -147 -153 1635 0
-126 -131 -148 -151 1635 0
-126 -132 -148 -152 1635 0
-126 -133 -148 -153 1635 0
-127 -131 -148 -151 1635 0
-127 -132 -148 -152 1635 0
-127 -133 -148 -153 1635 0
-127 -131 -149 -151 1635 0
-127 -132 -149 -152 1635 0
-127 -133 -149 -153 1635 0
-128 -131 -149 -151 1635 0
-128 -132 -149 -152 1635 0
-128 -133 -149 -153 1635 0
-128 -131 -150 -151 1635 0
-128 -132 -150 -152 1635 0
-128 -133 -150 -153 1635 0
-129 -131 -150 -151 1635 0
-129 -132 -150 -152 1635 0
-129 -133 -150 -153 1635 0
-1635 37 78 119 0
-165 -172 -187 -192 1636 0
-165 -173 -187 -193 1636 0
-165 -174 -187 -194 1636 0
-166 -172 -187 -192 1636 0
-166 -173 -187 -193 1636 0
-166 -174 -187 -194 1636 0
-166 -172 -188 -192 1636 0
-166 -173 -188 -193 1636 0
-166 -174 -188 -194 1636 0
-167 -172 -188 -192 1636 0
-167 -173 -188 -193 1636 0
-167 -174 -188 -194 1636 0
-167 -172 -189 -192 1636 0
-167 -173 -189 -193 1636 0
-167 -174 -189 -194 1636 0
-168 -172 -189 -192 1636 0
-168 -173 -189 -193 1636 0
-168 -174 -189 -194 1636 0
-168 -172 -190 -192 1636 0
-168 -173 -190 -193 1636 0
-168 -174 -190 -194 1636 0
-169 -172 -190 -192 1636 0
-169 -173 -190 -193 1636 0
-169 -174 -190 -194 1636 0
-169 -172 -191 -192 1636 0
-169 -173 -191 -193 1636 0
-169 -174 -191 -194 1636 0
-170 -172 -191 -192 1636 0
-170 -173 -191 -193 1636 0
-170 -174 -191 -194 1636 0
-1636 37 78 119 160 0
-206 -213 -228 -233 1637 0
-206 -214 -228 -234 1637 0
-206 -215 -228 -235 1637 0
-207 -213 -228 -233 1637 0
-207 -214 -228 -234 1637 0
-207 -215 -228 -235 1637 0
-207 -213 -229 -233 1637 0
-207 -214 -229 -234 1637 0
-207 -215 -229 -235 1637 0
-208 -213 -229 -233 1637 0
-208 -214 -229 -234 1637 0
-208 -215 -229 -235 1637 0
-208 -213 -230 -233 1637 0
-208 -214 -230 -234 1637 0
-208 -215 -230 -235 1637 0
-209 -213 -230 -233 1637 0
-209 -214 -230 -234 1637 0
-209 -215 -230 -235 1637 0
-209 -213 -231 -233 1637 0
-209 -214 -231 -234 1637 0
-209 -215 -231 -235 1637 0
-210 -213 -231 -233 1637 0
-210 -214 -231 -234 1637 0
-210 -215 -231 -235 1637 0
-210 -213 -232 -233 1637 0
-210 -214 -232 -234 1637 0
-210 -215 -232 -235 1637 0
-211 -213 -232 -233 1637 0
-211 -214 -232 -234 1637 0
-211 -215 -232 -235 1637 0
-1637 37 78 119 160 201 0
-247 -254 -269 -274 1638 0
-247 -255 -269 -275 1638 0
-247 -256 -269 -276 1638 0
-248 -254 -269 -274 1638 0
-248 -255 -269 -275 1638 0
-248 -256 -269 -276 1638 0
-248 -254 -270 -274 1638 0
-248 -255 -270 -275 1638 0
-248 -256 -270 -276 1638 0
-249 -254 -270 -274 1638 0
-249 -255 -270 -275 1638 0
-249 -256 -270 -276 1638 0
-249 -254 -271 -274 1638 0
-249 -255 -271 -275 1638 0
-249 -256 -271 -276 1638 0
-250 -254 -271 -274 1638 0
-250 -255 -271 -275 1638 0
-250 -256 -271 -276 1638 0
-250 -254 -272 -274 1638 0
-250 -255 -272 -275 1638 0
-250 -256 -272 -276 1638 0
-251 -254 -272 -274 1638 0
-251 -255 -272 -275 1638 0
-251 -256 -272 -276 1638 0
-251 -254 -273 -274 1638 0
-251 -255 -273 -275 1638 0
-251 -256 -273 -276 1638 0
-252 -254 -273 -274 1638 0
-252 -255 -273 -275 1638 0
-252 -256 -273 -276 1638 0
-1638 37 78 119 160 201 242 0
