p cnf 1146 31390
-1 -7 543 0
-543 7 0
-543 1 0
-543 542 0
-12 -18 544 0
-544 18 0
-544 12 0
-544 542 0
-23 -28 545 0
-545 28 0
-545 23 0
-545 542 0
-33 -37 546 0
-546 37 0
-546 33 0
-546 542 0
-542 543 544 545 546 0
-1 -8 548 0
-548 8 0
-548 1 0
-548 547 0
-12 -19 549 0
-549 19 0
-549 12 0
-549 547 0
-23 -29 550 0
-550 29 0
-550 23 0
-550 547 0
-33 -38 551 0
-551 38 0
-551 33 0
-551 547 0
-547 548 549 550 551 0
-1 -9 553 0
-553 9 0
-553 1 0
-553 552 0
-12 -20 554 0
-554 20 0
-554 12 0
-554 552 0
-23 -30 555 0
-555 30 0
-555 23 0
-555 552 0
-33 -39 556 0
-556 39 0
-556 33 0
-556 552 0
-552 553 554 555 556 0
-1 -10 558 0
-558 10 0
-558 1 0
-558 557 0
-12 -21 559 0
-559 21 0
-559 12 0
-559 557 0
-23 -31 560 0
-560 31 0
-560 23 0
-560 557 0
-33 -40 561 0
-561 40 0
-561 33 0
-561 557 0
-557 558 559 560 561 0
-2 -7 563 0
-563 7 0
-563 2 0
-563 562 0
-13 -18 564 0
-564 18 0
-564 13 0
-564 562 0
-23 -28 565 0
-24 -28 565 0
-565 28 0
-565 23 24 0
-565 562 0
-33 -37 566 0
-34 -37 566 0
-566 37 0
-566 33 34 0
-566 562 0
-562 563 564 565 566 0
-2 -8 568 0
-568 8 0
-568 2 0
-568 567 0
-13 -19 569 0
-569 19 0
-569 13 0
-569 567 0
-23 -29 570 0
-24 -29 570 0
-570 29 0
-570 23 24 0
-570 567 0
-33 -38 571 0
-34 -38 571 0
-571 38 0
-571 33 34 0
-571 567 0
-567 568 569 570 571 0
-2 -9 573 0
-573 9 0
-573 2 0
-573 572 0
-13 -20 574 0
-574 20 0
-574 13 0
-574 572 0
-23 -30 575 0
-24 -30 575 0
-575 30 0
-575 23 24 0
-575 572 0
-33 -39 576 0
-34 -39 576 0
-576 39 0
-576 33 34 0
-576 572 0
-572 573 574 575 576 0
-2 -10 578 0
-578 10 0
-578 2 0
-578 577 0
-13 -21 579 0
-579 21 0
-579 13 0
-579 577 0
-23 -31 580 0
-24 -31 580 0
-580 31 0
-580 23 24 0
-580 577 0
-33 -40 581 0
-34 -40 581 0
-581 40 0
-581 33 34 0
-581 577 0
-577 578 579 580 581 0
-3 -7 583 0
-583 7 0
-583 3 0
-583 582 0
-14 -18 584 0
-584 18 0
-584 14 0
-584 582 0
-24 -28 585 0
-25 -28 585 0
-585 28 0
-585 24 25 0
-585 582 0
-33 -37 586 0
-34 -37 586 0
-35 -37 586 0
-586 37 0
-586 33 34 35 0
-586 582 0
-582 583 584 585 586 0
-3 -8 588 0
-588 8 0
-588 3 0
-588 587 0
-14 -19 589 0
-589 19 0
-589 14 0
-589 587 0
-24 -29 590 0
-25 -29 590 0
-590 29 0
-590 24 25 0
-590 587 0
-33 -38 591 0
-34 -38 591 0
-35 -38 591 0
-591 38 0
-591 33 34 35 0
-591 587 0
-587 588 589 590 591 0
-3 -9 593 0
-593 9 0
-593 3 0
-593 592 0
-14 -20 594 0
-594 20 0
-594 14 0
-594 592 0
-24 -30 595 0
-25 -30 595 0
-595 30 0
-595 24 25 0
-595 592 0
-33 -39 596 0
-34 -39 596 0
-35 -39 596 0
-596 39 0
-596 33 34 35 0
-596 592 0
-592 593 594 595 596 0
-3 -10 598 0
-598 10 0
-598 3 0
-598 597 0
-14 -21 599 0
-599 21 0
-599 14 0
-599 597 0
-24 -31 600 0
-25 -31 600 0
-600 31 0
-600 24 25 0
-600 597 0
-33 -40 601 0
-34 -40 601 0
-35 -40 601 0
-601 40 0
-601 33 34 35 0
-601 597 0
-597 598 599 600 601 0
-4 -7 603 0
-603 7 0
-603 4 0
-603 602 0
-15 -18 604 0
-604 18 0
-604 15 0
-604 602 0
-25 -28 605 0
-26 -28 605 0
-605 28 0
-605 25 26 0
-605 602 0
-34 -37 606 0
-35 -37 606 0
-36 -37 606 0
-606 37 0
-606 34 35 36 0
-606 602 0
-602 603 604 605 606 0
-4 -8 608 0
-608 8 0
-608 4 0
-608 607 0
-15 -19 609 0
-609 19 0
-609 15 0
-609 607 0
-25 -29 610 0
-26 -29 610 0
-610 29 0
-610 25 26 0
-610 607 0
-34 -38 611 0
-35 -38 611 0
-36 -38 611 0
-611 38 0
-611 34 35 36 0
-611 607 0
-607 608 609 610 611 0
-4 -9 613 0
-613 9 0
-613 4 0
-613 612 0
-15 -20 614 0
-614 20 0
-614 15 0
-614 612 0
-25 -30 615 0
-26 -30 615 0
-615 30 0
-615 25 26 0
-615 612 0
-34 -39 616 0
-35 -39 616 0
-36 -39 616 0
-616 39 0
-616 34 35 36 0
-616 612 0
-612 613 614 615 616 0
-4 -10 618 0
-618 10 0
-618 4 0
-618 617 0
-15 -21 619 0
-619 21 0
-619 15 0
-619 617 0
-25 -31 620 0
-26 -31 620 0
-620 31 0
-620 25 26 0
-620 617 0
-34 -40 621 0
-35 -40 621 0
-36 -40 621 0
-621 40 0
-621 34 35 36 0
-621 617 0
-617 618 619 620 621 0
-5 -7 623 0
-623 7 0
-623 5 0
-623 622 0
-16 -18 624 0
-624 18 0
-624 16 0
-624 622 0
-26 -28 625 0
-27 -28 625 0
-625 28 0
-625 26 27 0
-625 622 0
-35 -37 626 0
-36 -37 626 0
-626 37 0
-626 35 36 0
-626 622 0
-622 623 624 625 626 0
-5 -8 628 0
-628 8 0
-628 5 0
-628 627 0
-16 -19 629 0
-629 19 0
-629 16 0
-629 627 0
-26 -29 630 0
-27 -29 630 0
-630 29 0
-630 26 27 0
-630 627 0
-35 -38 631 0
-36 -38 631 0
-631 38 0
-631 35 36 0
-631 627 0
-627 628 629 630 631 0
-5 -9 633 0
-633 9 0
-633 5 0
-633 632 0
-16 -20 634 0
-634 20 0
-634 16 0
-634 632 0
-26 -30 635 0
-27 -30 635 0
-635 30 0
-635 26 27 0
-635 632 0
-35 -39 636 0
-36 -39 636 0
-636 39 0
-636 35 36 0
-636 632 0
-632 633 634 635 636 0
-5 -10 638 0
-638 10 0
-638 5 0
-638 637 0
-16 -21 639 0
-639 21 0
-639 16 0
-639 637 0
-26 -31 640 0
-27 -31 640 0
-640 31 0
-640 26 27 0
-640 637 0
-35 -40 641 0
-36 -40 641 0
-641 40 0
-641 35 36 0
-641 637 0
-637 638 639 640 641 0
-6 -7 643 0
-643 7 0
-643 6 0
-643 642 0
-17 -18 644 0
-644 18 0
-644 17 0
-644 642 0
-27 -28 645 0
-645 28 0
-645 27 0
-645 642 0
-36 -37 646 0
-646 37 0
-646 36 0
-646 642 0
-642 643 644 645 646 0
-6 -8 648 0
-648 8 0
-648 6 0
-648 647 0
-17 -19 649 0
-649 19 0
-649 17 0
-649 647 0
-27 -29 650 0
-650 29 0
-650 27 0
-650 647 0
-36 -38 651 0
-651 38 0
-651 36 0
-651 647 0
-647 648 649 650 651 0
-6 -9 653 0
-653 9 0
-653 6 0
-653 652 0
-17 -20 654 0
-654 20 0
-654 17 0
-654 652 0
-27 -30 655 0
-655 30 0
-655 27 0
-655 652 0
-36 -39 656 0
-656 39 0
-656 36 0
-656 652 0
-652 653 654 655 656 0
-6 -10 658 0
-658 10 0
-658 6 0
-658 657 0
-17 -21 659 0
-659 21 0
-659 17 0
-659 657 0
-27 -31 660 0
-660 31 0
-660 27 0
-660 657 0
-36 -40 661 0
-661 40 0
-661 36 0
-661 657 0
-657 658 659 660 661 0
-42 -48 663 0
-663 48 0
-663 42 0
-663 662 0
-53 -59 664 0
-664 59 0
-664 53 0
-664 662 0
-64 -69 665 0
-665 69 0
-665 64 0
-665 662 0
-74 -78 666 0
-666 78 0
-666 74 0
-666 662 0
-662 663 664 665 666 0
-42 -49 668 0
-668 49 0
-668 42 0
-668 667 0
-53 -60 669 0
-669 60 0
-669 53 0
-669 667 0
-64 -70 670 0
-670 70 0
-670 64 0
-670 667 0
-74 -79 671 0
-671 79 0
-671 74 0
-671 667 0
-667 668 669 670 671 0
-42 -50 673 0
-673 50 0
-673 42 0
-673 672 0
-53 -61 674 0
-674 61 0
-674 53 0
-674 672 0
-64 -71 675 0
-675 71 0
-675 64 0
-675 672 0
-74 -80 676 0
-676 80 0
-676 74 0
-676 672 0
-672 673 674 675 676 0
-42 -51 678 0
-678 51 0
-678 42 0
-678 677 0
-53 -62 679 0
-679 62 0
-679 53 0
-679 677 0
-64 -72 680 0
-680 72 0
-680 64 0
-680 677 0
-74 -81 681 0
-681 81 0
-681 74 0
-681 677 0
-677 678 679 680 681 0
-43 -48 683 0
-683 48 0
-683 43 0
-683 682 0
-54 -59 684 0
-684 59 0
-684 54 0
-684 682 0
-64 -69 685 0
-65 -69 685 0
-685 69 0
-685 64 65 0
-685 682 0
-74 -78 686 0
-75 -78 686 0
-686 78 0
-686 74 75 0
-686 682 0
-682 683 684 685 686 0
-43 -49 688 0
-688 49 0
-688 43 0
-688 687 0
-54 -60 689 0
-689 60 0
-689 54 0
-689 687 0
-64 -70 690 0
-65 -70 690 0
-690 70 0
-690 64 65 0
-690 687 0
-74 -79 691 0
-75 -79 691 0
-691 79 0
-691 74 75 0
-691 687 0
-687 688 689 690 691 0
-43 -50 693 0
-693 50 0
-693 43 0
-693 692 0
-54 -61 694 0
-694 61 0
-694 54 0
-694 692 0
-64 -71 695 0
-65 -71 695 0
-695 71 0
-695 64 65 0
-695 692 0
-74 -80 696 0
-75 -80 696 0
-696 80 0
-696 74 75 0
-696 692 0
-692 693 694 695 696 0
-43 -51 698 0
-698 51 0
-698 43 0
-698 697 0
-54 -62 699 0
-699 62 0
-699 54 0
-699 697 0
-64 -72 700 0
-65 -72 700 0
-700 72 0
-700 64 65 0
-700 697 0
-74 -81 701 0
-75 -81 701 0
-701 81 0
-701 74 75 0
-701 697 0
-697 698 699 700 701 0
-44 -48 703 0
-703 48 0
-703 44 0
-703 702 0
-55 -59 704 0
-704 59 0
-704 55 0
-704 702 0
-65 -69 705 0
-66 -69 705 0
-705 69 0
-705 65 66 0
-705 702 0
-74 -78 706 0
-75 -78 706 0
-76 -78 706 0
-706 78 0
-706 74 75 76 0
-706 702 0
-702 703 704 705 706 0
-44 -49 708 0
-708 49 0
-708 44 0
-708 707 0
-55 -60 709 0
-709 60 0
-709 55 0
-709 707 0
-65 -70 710 0
-66 -70 710 0
-710 70 0
-710 65 66 0
-710 707 0
-74 -79 711 0
-75 -79 711 0
-76 -79 711 0
-711 79 0
-711 74 75 76 0
-711 707 0
-707 708 709 710 711 0
-44 -50 713 0
-713 50 0
-713 44 0
-713 712 0
-55 -61 714 0
-714 61 0
-714 55 0
-714 712 0
-65 -71 715 0
-66 -71 715 0
-715 71 0
-715 65 66 0
-715 712 0
-74 -80 716 0
-75 -80 716 0
-76 -80 716 0
-716 80 0
-716 74 75 76 0
-716 712 0
-712 713 714 715 716 0
-44 -51 718 0
-718 51 0
-718 44 0
-718 717 0
-55 -62 719 0
-719 62 0
-719 55 0
-719 717 0
-65 -72 720 0
-66 -72 720 0
-720 72 0
-720 65 66 0
-720 717 0
-74 -81 721 0
-75 -81 721 0
-76 -81 721 0
-721 81 0
-721 74 75 76 0
-721 717 0
-717 718 719 720 721 0
-45 -48 723 0
-723 48 0
-723 45 0
-723 722 0
-56 -59 724 0
-724 59 0
-724 56 0
-724 722 0
-66 -69 725 0
-67 -69 725 0
-725 69 0
-725 66 67 0
-725 722 0
-75 -78 726 0
-76 -78 726 0
-77 -78 726 0
-726 78 0
-726 75 76 77 0
-726 722 0
-722 723 724 725 726 0
-45 -49 728 0
-728 49 0
-728 45 0
-728 727 0
-56 -60 729 0
-729 60 0
-729 56 0
-729 727 0
-66 -70 730 0
-67 -70 730 0
-730 70 0
-730 66 67 0
-730 727 0
-75 -79 731 0
-76 -79 731 0
-77 -79 731 0
-731 79 0
-731 75 76 77 0
-731 727 0
-727 728 729 730 731 0
-45 -50 733 0
-733 50 0
-733 45 0
-733 732 0
-56 -61 734 0
-734 61 0
-734 56 0
-734 732 0
-66 -71 735 0
-67 -71 735 0
-735 71 0
-735 66 67 0
-735 732 0
-75 -80 736 0
-76 -80 736 0
-77 -80 736 0
-736 80 0
-736 75 76 77 0
-736 732 0
-732 733 734 735 736 0
-45 -51 738 0
-738 51 0
-738 45 0
-738 737 0
-56 -62 739 0
-739 62 0
-739 56 0
-739 737 0
-66 -72 740 0
-67 -72 740 0
-740 72 0
-740 66 67 0
-740 737 0
-75 -81 741 0
-76 -81 741 0
-77 -81 741 0
-741 81 0
-741 75 76 77 0
-741 737 0
-737 738 739 740 741 0
-46 -48 743 0
-743 48 0
-743 46 0
-743 742 0
-57 -59 744 0
-744 59 0
-744 57 0
-744 742 0
-67 -69 745 0
-68 -69 745 0
-745 69 0
-745 67 68 0
-745 742 0
-76 -78 746 0
-77 -78 746 0
-746 78 0
-746 76 77 0
-746 742 0
-742 743 744 745 746 0
-46 -49 748 0
-748 49 0
-748 46 0
-748 747 0
-57 -60 749 0
-749 60 0
-749 57 0
-749 747 0
-67 -70 750 0
-68 -70 750 0
-750 70 0
-750 67 68 0
-750 747 0
-76 -79 751 0
-77 -79 751 0
-751 79 0
-751 76 77 0
-751 747 0
-747 748 749 750 751 0
-46 -50 753 0
-753 50 0
-753 46 0
-753 752 0
-57 -61 754 0
-754 61 0
-754 57 0
-754 752 0
-67 -71 755 0
-68 -71 755 0
-755 71 0
-755 67 68 0
-755 752 0
-76 -80 756 0
-77 -80 756 0
-756 80 0
-756 76 77 0
-756 752 0
-752 753 754 755 756 0
-46 -51 758 0
-758 51 0
-758 46 0
-758 757 0
-57 -62 759 0
-759 62 0
-759 57 0
-759 757 0
-67 -72 760 0
-68 -72 760 0
-760 72 0
-760 67 68 0
-760 757 0
-76 -81 761 0
-77 -81 761 0
-761 81 0
-761 76 77 0
-761 757 0
-757 758 759 760 761 0
-47 -48 763 0
-763 48 0
-763 47 0
-763 762 0
-58 -59 764 0
-764 59 0
-764 58 0
-764 762 0
-68 -69 765 0
-765 69 0
-765 68 0
-765 762 0
-77 -78 766 0
-766 78 0
-766 77 0
-766 762 0
-762 763 764 765 766 0
-47 -49 768 0
-768 49 0
-768 47 0
-768 767 0
-58 -60 769 0
-769 60 0
-769 58 0
-769 767 0
-68 -70 770 0
-770 70 0
-770 68 0
-770 767 0
-77 -79 771 0
-771 79 0
-771 77 0
-771 767 0
-767 768 769 770 771 0
-47 -50 773 0
-773 50 0
-773 47 0
-773 772 0
-58 -61 774 0
-774 61 0
-774 58 0
-774 772 0
-68 -71 775 0
-775 71 0
-775 68 0
-775 772 0
-77 -80 776 0
-776 80 0
-776 77 0
-776 772 0
-772 773 774 775 776 0
-47 -51 778 0
-778 51 0
-778 47 0
-778 777 0
-58 -62 779 0
-779 62 0
-779 58 0
-779 777 0
-68 -72 780 0
-780 72 0
-780 68 0
-780 777 0
-77 -81 781 0
-781 81 0
-781 77 0
-781 777 0
-777 778 779 780 781 0
-83 -89 783 0
-783 89 0
-783 83 0
-783 782 0
-94 -100 784 0
-784 100 0
-784 94 0
-784 782 0
-105 -110 785 0
-785 110 0
-785 105 0
-785 782 0
-115 -119 786 0
-786 119 0
-786 115 0
-786 782 0
-782 783 784 785 786 0
-83 -90 788 0
-788 90 0
-788 83 0
-788 787 0
-94 -101 789 0
-789 101 0
-789 94 0
-789 787 0
-105 -111 790 0
-790 111 0
-790 105 0
-790 787 0
-115 -120 791 0
-791 120 0
-791 115 0
-791 787 0
-787 788 789 790 791 0
-83 -91 793 0
-793 91 0
-793 83 0
-793 792 0
-94 -102 794 0
-794 102 0
-794 94 0
-794 792 0
-105 -112 795 0
-795 112 0
-795 105 0
-795 792 0
-115 -121 796 0
-796 121 0
-796 115 0
-796 792 0
-792 793 794 795 796 0
-83 -92 798 0
-798 92 0
-798 83 0
-798 797 0
-94 -103 799 0
-799 103 0
-799 94 0
-799 797 0
-105 -113 800 0
-800 113 0
-800 105 0
-800 797 0
-115 -122 801 0
-801 122 0
-801 115 0
-801 797 0
-797 798 799 800 801 0
-84 -89 803 0
-803 89 0
-803 84 0
-803 802 0
-95 -100 804 0
-804 100 0
-804 95 0
-804 802 0
-105 -110 805 0
-106 -110 805 0
-805 110 0
-805 105 106 0
-805 802 0
-115 -119 806 0
-116 -119 806 0
-806 119 0
-806 115 116 0
-806 802 0
-802 803 804 805 806 0
-84 -90 808 0
-808 90 0
-808 84 0
-808 807 0
-95 -101 809 0
-809 101 0
-809 95 0
-809 807 0
-105 -111 810 0
-106 -111 810 0
-810 111 0
-810 105 106 0
-810 807 0
-115 -120 811 0
-116 -120 811 0
-811 120 0
-811 115 116 0
-811 807 0
-807 808 809 810 811 0
-84 -91 813 0
-813 91 0
-813 84 0
-813 812 0
-95 -102 814 0
-814 102 0
-814 95 0
-814 812 0
-105 -112 815 0
-106 -112 815 0
-815 112 0
-815 105 106 0
-815 812 0
-115 -121 816 0
-116 -121 816 0
-816 121 0
-816 115 116 0
-816 812 0
-812 813 814 815 816 0
-84 -92 818 0
-818 92 0
-818 84 0
-818 817 0
-95 -103 819 0
-819 103 0
-819 95 0
-819 817 0
-105 -113 820 0
-106 -113 820 0
-820 113 0
-820 105 106 0
-820 817 0
-115 -122 821 0
-116 -122 821 0
-821 122 0
-821 115 116 0
-821 817 0
-817 818 819 820 821 0
-85 -89 823 0
-823 89 0
-823 85 0
-823 822 0
-96 -100 824 0
-824 100 0
-824 96 0
-824 822 0
-106 -110 825 0
-107 -110 825 0
-825 110 0
-825 106 107 0
-825 822 0
-115 -119 826 0
-116 -119 826 0
-117 -119 826 0
-826 119 0
-826 115 116 117 0
-826 822 0
-822 823 824 825 826 0
-85 -90 828 0
-828 90 0
-828 85 0
-828 827 0
-96 -101 829 0
-829 101 0
-829 96 0
-829 827 0
-106 -111 830 0
-107 -111 830 0
-830 111 0
-830 106 107 0
-830 827 0
-115 -120 831 0
-116 -120 831 0
-117 -120 831 0
-831 120 0
-831 115 116 117 0
-831 827 0
-827 828 829 830 831 0
-85 -91 833 0
-833 91 0
-833 85 0
-833 832 0
-96 -102 834 0
-834 102 0
-834 96 0
-834 832 0
-106 -112 835 0
-107 -112 835 0
-835 112 0
-835 106 107 0
-835 832 0
-115 -121 836 0
-116 -121 836 0
-117 -121 836 0
-836 121 0
-836 115 116 117 0
-836 832 0
-832 833 834 835 836 0
-85 -92 838 0
-838 92 0
-838 85 0
-838 837 0
-96 -103 839 0
-839 103 0
-839 96 0
-839 837 0
-106 -113 840 0
-107 -113 840 0
-840 113 0
-840 106 107 0
-840 837 0
-115 -122 841 0
-116 -122 841 0
-117 -122 841 0
-841 122 0
-841 115 116 117 0
-841 837 0
-837 838 839 840 841 0
-86 -89 843 0
-843 89 0
-843 86 0
-843 842 0
-97 -100 844 0
-844 100 0
-844 97 0
-844 842 0
-107 -110 845 0
-108 -110 845 0
-845 110 0
-845 107 108 0
-845 842 0
-116 -119 846 0
-117 -119 846 0
-118 -119 846 0
-846 119 0
-846 116 117 118 0
-846 842 0
-842 843 844 845 846 0
-86 -90 848 0
-848 90 0
-848 86 0
-848 847 0
-97 -101 849 0
-849 101 0
-849 97 0
-849 847 0
-107 -111 850 0
-108 -111 850 0
-850 111 0
-850 107 108 0
-850 847 0
-116 -120 851 0
-117 -120 851 0
-118 -120 851 0
-851 120 0
-851 116 117 118 0
-851 847 0
-847 848 849 850 851 0
-86 -91 853 0
-853 91 0
-853 86 0
-853 852 0
-97 -102 854 0
-854 102 0
-854 97 0
-854 852 0
-107 -112 855 0
-108 -112 855 0
-855 112 0
-855 107 108 0
-855 852 0
-116 -121 856 0
-117 -121 856 0
-118 -121 856 0
-856 121 0
-856 116 117 118 0
-856 852 0
-852 853 854 855 856 0
-86 -92 858 0
-858 92 0
-858 86 0
-858 857 0
-97 -103 859 0
-859 103 0
-859 97 0
-859 857 0
-107 -113 860 0
-108 -113 860 0
-860 113 0
-860 107 108 0
-860 857 0
-116 -122 861 0
-117 -122 861 0
-118 -122 861 0
-861 122 0
-861 116 117 118 0
-861 857 0
-857 858 859 860 861 0
-87 -89 863 0
-863 89 0
-863 87 0
-863 862 0
-98 -100 864 0
-864 100 0
-864 98 0
-864 862 0
-108 -110 865 0
-109 -110 865 0
-865 110 0
-865 108 109 0
-865 862 0
-117 -119 866 0
-118 -119 866 0
-866 119 0
-866 117 118 0
-866 862 0
-862 863 864 865 866 0
-87 -90 868 0
-868 90 0
-868 87 0
-868 867 0
-98 -101 869 0
-869 101 0
-869 98 0
-869 867 0
-108 -111 870 0
-109 -111 870 0
-870 111 0
-870 108 109 0
-870 867 0
-117 -120 871 0
-118 -120 871 0
-871 120 0
-871 117 118 0
-871 867 0
-867 868 869 870 871 0
-87 -91 873 0
-873 91 0
-873 87 0
-873 872 0
-98 -102 874 0
-874 102 0
-874 98 0
-874 872 0
-108 -112 875 0
-109 -112 875 0
-875 112 0
-875 108 109 0
-875 872 0
-117 -121 876 0
-118 -121 876 0
-876 121 0
-876 117 118 0
-876 872 0
-872 873 874 875 876 0
-87 -92 878 0
-878 92 0
-878 87 0
-878 877 0
-98 -103 879 0
-879 103 0
-879 98 0
-879 877 0
-108 -113 880 0
-109 -113 880 0
-880 113 0
-880 108 109 0
-880 877 0
-117 -122 881 0
-118 -122 881 0
-881 122 0
-881 117 118 0
-881 877 0
-877 878 879 880 881 0
-88 -89 883 0
-883 89 0
-883 88 0
-883 882 0
-99 -100 884 0
-884 100 0
-884 99 0
-884 882 0
-109 -110 885 0
-885 110 0
-885 109 0
-885 882 0
-118 -119 886 0
-886 119 0
-886 118 0
-886 882 0
-882 883 884 885 886 0
-88 -90 888 0
-888 90 0
-888 88 0
-888 887 0
-99 -101 889 0
-889 101 0
-889 99 0
-889 887 0
-109 -111 890 0
-890 111 0
-890 109 0
-890 887 0
-118 -120 891 0
-891 120 0
-891 118 0
-891 887 0
-887 888 889 890 891 0
-88 -91 893 0
-893 91 0
-893 88 0
-893 892 0
-99 -102 894 0
-894 102 0
-894 99 0
-894 892 0
-109 -112 895 0
-895 112 0
-895 109 0
-895 892 0
-118 -121 896 0
-896 121 0
-896 118 0
-896 892 0
-892 893 894 895 896 0
-88 -92 898 0
-898 92 0
-898 88 0
-898 897 0
-99 -103 899 0
-899 103 0
-899 99 0
-899 897 0
-109 -113 900 0
-900 113 0
-900 109 0
-900 897 0
-118 -122 901 0
-901 122 0
-901 118 0
-901 897 0
-897 898 899 900 901 0
-124 -130 903 0
-903 130 0
-903 124 0
-903 902 0
-135 -141 904 0
-904 141 0
-904 135 0
-904 902 0
-146 -151 905 0
-905 151 0
-905 146 0
-905 902 0
-156 -160 906 0
-906 160 0
-906 156 0
-906 902 0
-902 903 904 905 906 0
-124 -131 908 0
-908 131 0
-908 124 0
-908 907 0
-135 -142 909 0
-909 142 0
-909 135 0
-909 907 0
-146 -152 910 0
-910 152 0
-910 146 0
-910 907 0
-156 -161 911 0
-911 161 0
-911 156 0
-911 907 0
-907 908 909 910 911 0
-124 -132 913 0
-913 132 0
-913 124 0
-913 912 0
-135 -143 914 0
-914 143 0
-914 135 0
-914 912 0
-146 -153 915 0
-915 153 0
-915 146 0
-915 912 0
-156 -162 916 0
-916 162 0
-916 156 0
-916 912 0
-912 913 914 915 916 0
-124 -133 918 0
-918 133 0
-918 124 0
-918 917 0
-135 -144 919 0
-919 144 0
-919 135 0
-919 917 0
-146 -154 920 0
-920 154 0
-920 146 0
-920 917 0
-156 -163 921 0
-921 163 0
-921 156 0
-921 917 0
-917 918 919 920 921 0
-125 -130 923 0
-923 130 0
-923 125 0
-923 922 0
-136 -141 924 0
-924 141 0
-924 136 0
-924 922 0
-146 -151 925 0
-147 -151 925 0
-925 151 0
-925 146 147 0
-925 922 0
-156 -160 926 0
-157 -160 926 0
-926 160 0
-926 156 157 0
-926 922 0
-922 923 924 925 926 0
-125 -131 928 0
-928 131 0
-928 125 0
-928 927 0
-136 -142 929 0
-929 142 0
-929 136 0
-929 927 0
-146 -152 930 0
-147 -152 930 0
-930 152 0
-930 146 147 0
-930 927 0
-156 -161 931 0
-157 -161 931 0
-931 161 0
-931 156 157 0
-931 927 0
-927 928 929 930 931 0
-125 -132 933 0
-933 132 0
-933 125 0
-933 932 0
-136 -143 934 0
-934 143 0
-934 136 0
-934 932 0
-146 -153 935 0
-147 -153 935 0
-935 153 0
-935 146 147 0
-935 932 0
-156 -162 936 0
-157 -162 936 0
-936 162 0
-936 156 157 0
-936 932 0
-932 933 934 935 936 0
-125 -133 938 0
-938 133 0
-938 125 0
-938 937 0
-136 -144 939 0
-939 144 0
-939 136 0
-939 937 0
-146 -154 940 0
-147 -154 940 0
-940 154 0
-940 146 147 0
-940 937 0
-156 -163 941 0
-157 -163 941 0
-941 163 0
-941 156 157 0
-941 937 0
-937 938 939 940 941 0
-126 -130 943 0
-943 130 0
-943 126 0
-943 942 0
-137 -141 944 0
-944 141 0
-944 137 0
-944 942 0
-147 -151 945 0
-148 -151 945 0
-945 151 0
-945 147 148 0
-945 942 0
-156 -160 946 0
-157 -160 946 0
-158 -160 946 0
-946 160 0
-946 156 157 158 0
-946 942 0
-942 943 944 945 946 0
-126 -131 948 0
-948 131 0
-948 126 0
-948 947 0
-137 -142 949 0
-949 142 0
-949 137 0
-949 947 0
-147 -152 950 0
-148 -152 950 0
-950 152 0
-950 147 148 0
-950 947 0
-156 -161 951 0
-157 -161 951 0
-158 -161 951 0
-951 161 0
-951 156 157 158 0
-951 947 0
-947 948 949 950 951 0
-126 -132 953 0
-953 132 0
-953 126 0
-953 952 0
-137 -143 954 0
-954 143 0
-954 137 0
-954 952 0
-147 -153 955 0
-148 -153 955 0
-955 153 0
-955 147 148 0
-955 952 0
-156 -162 956 0
-157 -162 956 0
-158 -162 956 0
-956 162 0
-956 156 157 158 0
-956 952 0
-952 953 954 955 956 0
-126 -133 958 0
-958 133 0
-958 126 0
-958 957 0
-137 -144 959 0
-959 144 0
-959 137 0
-959 957 0
-147 -154 960 0
-148 -154 960 0
-960 154 0
-960 147 148 0
-960 957 0
-156 -163 961 0
-157 -163 961 0
-158 -163 961 0
-961 163 0
-961 156 157 158 0
-961 957 0
-957 958 959 960 961 0
-127 -130 963 0
-963 130 0
-963 127 0
-963 962 0
-138 -141 964 0
-964 141 0
-964 138 0
-964 962 0
-148 -151 965 0
-149 -151 965 0
-965 151 0
-965 148 149 0
-965 962 0
-157 -160 966 0
-158 -160 966 0
-159 -160 966 0
-966 160 0
-966 157 158 159 0
-966 962 0
-962 963 964 965 966 0
-127 -131 968 0
-968 131 0
-968 127 0
-968 967 0
-138 -142 969 0
-969 142 0
-969 138 0
-969 967 0
-148 -152 970 0
-149 -152 970 0
-970 152 0
-970 148 149 0
-970 967 0
-157 -161 971 0
-158 -161 971 0
-159 -161 971 0
-971 161 0
-971 157 158 159 0
-971 967 0
-967 968 969 970 971 0
-127 -132 973 0
-973 132 0
-973 127 0
-973 972 0
-138 -143 974 0
-974 143 0
-974 138 0
-974 972 0
-148 -153 975 0
-149 -153 975 0
-975 153 0
-975 148 149 0
-975 972 0
-157 -162 976 0
-158 -162 976 0
-159 -162 976 0
-976 162 0
-976 157 158 159 0
-976 972 0
-972 973 974 975 976 0
-127 -133 978 0
-978 133 0
-978 127 0
-978 977 0
-138 -144 979 0
-979 144 0
-979 138 0
-979 977 0
-148 -154 980 0
-149 -154 980 0
-980 154 0
-980 148 149 0
-980 977 0
-157 -163 981 0
-158 -163 981 0
-159 -163 981 0
-981 163 0
-981 157 158 159 0
-981 977 0
-977 978 979 980 981 0
-128 -130 983 0
-983 130 0
-983 128 0
-983 982 0
-139 -141 984 0
-984 141 0
-984 139 0
-984 982 0
-149 -151 985 0
-150 -151 985 0
-985 151 0
-985 149 150 0
-985 982 0
-158 -160 986 0
-159 -160 986 0
-986 160 0
-986 158 159 0
-986 982 0
-982 983 984 985 986 0
-128 -131 988 0
-988 131 0
-988 128 0
-988 987 0
-139 -142 989 0
-989 142 0
-989 139 0
-989 987 0
-149 -152 990 0
-150 -152 990 0
-990 152 0
-990 149 150 0
-990 987 0
-158 -161 991 0
-159 -161 991 0
-991 161 0
-991 158 159 0
-991 987 0
-987 988 989 990 991 0
-128 -132 993 0
-993 132 0
-993 128 0
-993 992 0
-139 -143 994 0
-994 143 0
-994 139 0
-994 992 0
-149 -153 995 0
-150 -153 995 0
-995 153 0
-995 149 150 0
-995 992 0
-158 -162 996 0
-159 -162 996 0
-996 162 0
-996 158 159 0
-996 992 0
-992 993 994 995 996 0
-128 -133 998 0
-998 133 0
-998 128 0
-998 997 0
-139 -144 999 0
-999 144 0
-999 139 0
-999 997 0
-149 -154 1000 0
-150 -154 1000 0
-1000 154 0
-1000 149 150 0
-1000 997 0
-158 -163 1001 0
-159 -163 1001 0
-1001 163 0
-1001 158 159 0
-1001 997 0
-997 998 999 1000 1001 0
-129 -130 1003 0
-1003 130 0
-1003 129 0
-1003 1002 0
-140 -141 1004 0
-1004 141 0
-1004 140 0
-1004 1002 0
-150 -151 1005 0
-1005 151 0
-1005 150 0
-1005 1002 0
-159 -160 1006 0
-1006 160 0
-1006 159 0
-1006 1002 0
-1002 1003 1004 1005 1006 0
-129 -131 1008 0
-1008 131 0
-1008 129 0
-1008 1007 0
-140 -142 1009 0
-1009 142 0
-1009 140 0
-1009 1007 0
-150 -152 1010 0
-1010 152 0
-1010 150 0
-1010 1007 0
-159 -161 1011 0
-1011 161 0
-1011 159 0
-1011 1007 0
-1007 1008 1009 1010 1011 0
-129 -132 1013 0
-1013 132 0
-1013 129 0
-1013 1012 0
-140 -143 1014 0
-1014 143 0
-1014 140 0
-1014 1012 0
-150 -153 1015 0
-1015 153 0
-1015 150 0
-1015 1012 0
-159 -162 1016 0
-1016 162 0
-1016 159 0
-1016 1012 0
-1012 1013 1014 1015 1016 0
-129 -133 1018 0
-1018 133 0
-1018 129 0
-1018 1017 0
-140 -144 1019 0
-1019 144 0
-1019 140 0
-1019 1017 0
-150 -154 1020 0
-1020 154 0
-1020 150 0
-1020 1017 0
-159 -163 1021 0
-1021 163 0
-1021 159 0
-1021 1017 0
-1017 1018 1019 1020 1021 0
-165 -171 1023 0
-1023 171 0
-1023 165 0
-1023 1022 0
-176 -182 1024 0
-1024 182 0
-1024 176 0
-1024 1022 0
-187 -192 1025 0
-1025 192 0
-1025 187 0
-1025 1022 0
-197 -201 1026 0
-1026 201 0
-1026 197 0
-1026 1022 0
-1022 1023 1024 1025 1026 0
-165 -172 1028 0
-1028 172 0
-1028 165 0
-1028 1027 0
-176 -183 1029 0
-1029 183 0
-1029 176 0
-1029 1027 0
-187 -193 1030 0
-1030 193 0
-1030 187 0
-1030 1027 0
-197 -202 1031 0
-1031 202 0
-1031 197 0
-1031 1027 0
-1027 1028 1029 1030 1031 0
-165 -173 1033 0
-1033 173 0
-1033 165 0
-1033 1032 0
-176 -184 1034 0
-1034 184 0
-1034 176 0
-1034 1032 0
-187 -194 1035 0
-1035 194 0
-1035 187 0
-1035 1032 0
-197 -203 1036 0
-1036 203 0
-1036 197 0
-1036 1032 0
-1032 1033 1034 1035 1036 0
-165 -174 1038 0
-1038 174 0
-1038 165 0
-1038 1037 0
-176 -185 1039 0
-1039 185 0
-1039 176 0
-1039 1037 0
-187 -195 1040 0
-1040 195 0
-1040 187 0
-1040 1037 0
-197 -204 1041 0
-1041 204 0
-1041 197 0
-1041 1037 0
-1037 1038 1039 1040 1041 0
-166 -171 1043 0
-1043 171 0
-1043 166 0
-1043 1042 0
-177 -182 1044 0
-1044 182 0
-1044 177 0
-1044 1042 0
-187 -192 1045 0
-188 -192 1045 0
-1045 192 0
-1045 187 188 0
-1045 1042 0
-197 -201 1046 0
-198 -201 1046 0
-1046 201 0
-1046 197 198 0
-1046 1042 0
-1042 1043 1044 1045 1046 0
-166 -172 1048 0
-1048 172 0
-1048 166 0
-1048 1047 0
-177 -183 1049 0
-1049 183 0
-1049 177 0
-1049 1047 0
-187 -193 1050 0
-188 -193 1050 0
-1050 193 0
-1050 187 188 0
-1050 1047 0
-197 -202 1051 0
-198 -202 1051 0
-1051 202 0
-1051 197 198 0
-1051 1047 0
-1047 1048 1049 1050 1051 0
-166 -173 1053 0
-1053 173 0
-1053 166 0
-1053 1052 0
-177 -184 1054 0
-1054 184 0
-1054 177 0
-1054 1052 0
-187 -194 1055 0
-188 -194 1055 0
-1055 194 0
-1055 187 188 0
-1055 1052 0
-197 -203 1056 0
-198 -203 1056 0
-1056 203 0
-1056 197 198 0
-1056 1052 0
-1052 1053 1054 1055 1056 0
-166 -174 1058 0
-1058 174 0
-1058 166 0
-1058 1057 0
-177 -185 1059 0
-1059 185 0
-1059 177 0
-1059 1057 0
-187 -195 1060 0
-188 -195 1060 0
-1060 195 0
-1060 187 188 0
-1060 1057 0
-197 -204 1061 0
-198 -204 1061 0
-1061 204 0
-1061 197 198 0
-1061 1057 0
-1057 1058 1059 1060 1061 0
-167 -171 1063 0
-1063 171 0
-1063 167 0
-1063 1062 0
-178 -182 1064 0
-1064 182 0
-1064 178 0
-1064 1062 0
-188 -192 1065 0
-189 -192 1065 0
-1065 192 0
-1065 188 189 0
-1065 1062 0
-197 -201 1066 0
-198 -201 1066 0
-199 -201 1066 0
-1066 201 0
-1066 197 198 199 0
-1066 1062 0
-1062 1063 1064 1065 1066 0
-167 -172 1068 0
-1068 172 0
-1068 167 0
-1068 1067 0
-178 -183 1069 0
-1069 183 0
-1069 178 0
-1069 1067 0
-188 -193 1070 0
-189 -193 1070 0
-1070 193 0
-1070 188 189 0
-1070 1067 0
-197 -202 1071 0
-198 -202 1071 0
-199 -202 1071 0
-1071 202 0
-1071 197 198 199 0
-1071 1067 0
-1067 1068 1069 1070 1071 0
-167 -173 1073 0
-1073 173 0
-1073 167 0
-1073 1072 0
-178 -184 1074 0
-1074 184 0
-1074 178 0
-1074 1072 0
-188 -194 1075 0
-189 -194 1075 0
-1075 194 0
-1075 188 189 0
-1075 1072 0
-197 -203 1076 0
-198 -203 1076 0
-199 -203 1076 0
-1076 203 0
-1076 197 198 199 0
-1076 1072 0
-1072 1073 1074 1075 1076 0
-167 -174 1078 0
-1078 174 0
-1078 167 0
-1078 1077 0
-178 -185 1079 0
-1079 185 0
-1079 178 0
-1079 1077 0
-188 -195 1080 0
-189 -195 1080 0
-1080 195 0
-1080 188 189 0
-1080 1077 0
-197 -204 1081 0
-198 -204 1081 0
-199 -204 1081 0
-1081 204 0
-1081 197 198 199 0
-1081 1077 0
-1077 1078 1079 1080 1081 0
-168 -171 1083 0
-1083 171 0
-1083 168 0
-1083 1082 0
-179 -182 1084 0
-1084 182 0
-1084 179 0
-1084 1082 0
-189 -192 1085 0
-190 -192 1085 0
-1085 192 0
-1085 189 190 0
-1085 1082 0
-198 -201 1086 0
-199 -201 1086 0
-200 -201 1086 0
-1086 201 0
-1086 198 199 200 0
-1086 1082 0
-1082 1083 1084 1085 1086 0
-168 -172 1088 0
-1088 172 0
-1088 168 0
-1088 1087 0
-179 -183 1089 0
-1089 183 0
-1089 179 0
-1089 1087 0
-189 -193 1090 0
-190 -193 1090 0
-1090 193 0
-1090 189 190 0
-1090 1087 0
-198 -202 1091 0
-199 -202 1091 0
-200 -202 1091 0
-1091 202 0
-1091 198 199 200 0
-1091 1087 0
-1087 1088 1089 1090 1091 0
-168 -173 1093 0
-1093 173 0
-1093 168 0
-1093 1092 0
-179 -184 1094 0
-1094 184 0
-1094 179 0
-1094 1092 0
-189 -194 1095 0
-190 -194 1095 0
-1095 194 0
-1095 189 190 0
-1095 1092 0
-198 -203 1096 0
-199 -203 1096 0
-200 -203 1096 0
-1096 203 0
-1096 198 199 200 0
-1096 1092 0
-1092 1093 1094 1095 1096 0
-168 -174 1098 0
-1098 174 0
-1098 168 0
-1098 1097 0
-179 -185 1099 0
-1099 185 0
-1099 179 0
-1099 1097 0
-189 -195 1100 0
-190 -195 1100 0
-1100 195 0
-1100 189 190 0
-1100 1097 0
-198 -204 1101 0
-199 -204 1101 0
-200 -204 1101 0
-1101 204 0
-1101 198 199 200 0
-1101 1097 0
-1097 1098 1099 1100 1101 0
-169 -171 1103 0
-1103 171 0
-1103 169 0
-1103 1102 0
-180 -182 1104 0
-1104 182 0
-1104 180 0
-1104 1102 0
-190 -192 1105 0
-191 -192 1105 0
-1105 192 0
-1105 190 191 0
-1105 1102 0
-199 -201 1106 0
-200 -201 1106 0
-1106 201 0
-1106 199 200 0
-1106 1102 0
-1102 1103 1104 1105 1106 0
-169 -172 1108 0
-1108 172 0
-1108 169 0
-1108 1107 0
-180 -183 1109 0
-1109 183 0
-1109 180 0
-1109 1107 0
-190 -193 1110 0
-191 -193 1110 0
-1110 193 0
-1110 190 191 0
-1110 1107 0
-199 -202 1111 0
-200 -202 1111 0
-1111 202 0
-1111 199 200 0
-1111 1107 0
-1107 1108 1109 1110 1111 0
-169 -173 1113 0
-1113 173 0
-1113 169 0
-1113 1112 0
-180 -184 1114 0
-1114 184 0
-1114 180 0
-1114 1112 0
-190 -194 1115 0
-191 -194 1115 0
-1115 194 0
-1115 190 191 0
-1115 1112 0
-199 -203 1116 0
-200 -203 1116 0
-1116 203 0
-1116 199 200 0
-1116 1112 0
-1112 1113 1114 1115 1116 0
-169 -174 1118 0
-1118 174 0
-1118 169 0
-1118 1117 0
-180 -185 1119 0
-1119 185 0
-1119 180 0
-1119 1117 0
-190 -195 1120 0
-191 -195 1120 0
-1120 195 0
-1120 190 191 0
-1120 1117 0
-199 -204 1121 0
-200 -204 1121 0
-1121 204 0
-1121 199 200 0
-1121 1117 0
-1117 1118 1119 1120 1121 0
-170 -171 1123 0
-1123 171 0
-1123 170 0
-1123 1122 0
-181 -182 1124 0
-1124 182 0
-1124 181 0
-1124 1122 0
-191 -192 1125 0
-1125 192 0
-1125 191 0
-1125 1122 0
-200 -201 1126 0
-1126 201 0
-1126 200 0
-1126 1122 0
-1122 1123 1124 1125 1126 0
-170 -172 1128 0
-1128 172 0
-1128 170 0
-1128 1127 0
-181 -183 1129 0
-1129 183 0
-1129 181 0
-1129 1127 0
-191 -193 1130 0
-1130 193 0
-1130 191 0
-1130 1127 0
-200 -202 1131 0
-1131 202 0
-1131 200 0
-1131 1127 0
-1127 1128 1129 1130 1131 0
-170 -173 1133 0
-1133 173 0
-1133 170 0
-1133 1132 0
-181 -184 1134 0
-1134 184 0
-1134 181 0
-1134 1132 0
-191 -194 1135 0
-1135 194 0
-1135 191 0
-1135 1132 0
-200 -203 1136 0
-1136 203 0
-1136 200 0
-1136 1132 0
-1132 1133 1134 1135 1136 0
-170 -174 1138 0
-1138 174 0
-1138 170 0
-1138 1137 0
-181 -185 1139 0
-1139 185 0
-1139 181 0
-1139 1137 0
-191 -195 1140 0
-1140 195 0
-1140 191 0
-1140 1137 0
-200 -204 1141 0
-1141 204 0
-1141 200 0
-1141 1137 0
-1137 1138 1139 1140 1141 0
23 0
28 0
4 0
7 0
17 0
18 0
36 0
38 0
187 0
192 0
165 0
172 0
199 0
201 0
181 0
182 0
1 2 3 4 5 6 0
-1 -2 0
-1 -3 0
-1 -4 0
-1 -5 0
-1 -6 0
-2 -3 0
-2 -4 0
-2 -5 0
-2 -6 0
-3 -4 0
-3 -5 0
-3 -6 0
-4 -5 0
-4 -6 0
-5 -6 0
7 8 9 10 0
-7 -8 0
-7 -9 0
-7 -10 0
-8 -9 0
-8 -10 0
-9 -10 0
12 13 14 15 16 17 0
-12 -13 0
-12 -14 0
-12 -15 0
-12 -16 0
-12 -17 0
-13 -14 0
-13 -15 0
-13 -16 0
-13 -17 0
-14 -15 0
-14 -16 0
-14 -17 0
-15 -16 0
-15 -17 0
-16 -17 0
18 19 20 21 0
-18 -19 0
-18 -20 0
-18 -21 0
-19 -20 0
-19 -21 0
-20 -21 0
23 24 25 26 27 0
-23 -24 0
-23 -25 0
-23 -26 0
-23 -27 0
-24 -25 0
-24 -26 0
-24 -27 0
-25 -26 0
-25 -27 0
-26 -27 0
28 29 30 31 0
-28 -29 0
-28 -30 0
-28 -31 0
-29 -30 0
-29 -31 0
-30 -31 0
33 34 35 36 0
-33 -34 0
-33 -35 0
-33 -36 0
-34 -35 0
-34 -36 0
-35 -36 0
37 38 39 40 0
-37 -38 0
-37 -39 0
-37 -40 0
-38 -39 0
-38 -40 0
-39 -40 0
42 43 44 45 46 47 0
-42 -43 0
-42 -44 0
-42 -45 0
-42 -46 0
-42 -47 0
-43 -44 0
-43 -45 0
-43 -46 0
-43 -47 0
-44 -45 0
-44 -46 0
-44 -47 0
-45 -46 0
-45 -47 0
-46 -47 0
48 49 50 51 0
-48 -49 0
-48 -50 0
-48 -51 0
-49 -50 0
-49 -51 0
-50 -51 0
53 54 55 56 57 58 0
-53 -54 0
-53 -55 0
-53 -56 0
-53 -57 0
-53 -58 0
-54 -55 0
-54 -56 0
-54 -57 0
-54 -58 0
-55 -56 0
-55 -57 0
-55 -58 0
-56 -57 0
-56 -58 0
-57 -58 0
59 60 61 62 0
-59 -60 0
-59 -61 0
-59 -62 0
-60 -61 0
-60 -62 0
-61 -62 0
64 65 66 67 68 0
-64 -65 0
-64 -66 0
-64 -67 0
-64 -68 0
-65 -66 0
-65 -67 0
-65 -68 0
-66 -67 0
-66 -68 0
-67 -68 0
69 70 71 72 0
-69 -70 0
-69 -71 0
-69 -72 0
-70 -71 0
-70 -72 0
-71 -72 0
74 75 76 77 0
-74 -75 0
-74 -76 0
-74 -77 0
-75 -76 0
-75 -77 0
-76 -77 0
78 79 80 81 0
-78 -79 0
-78 -80 0
-78 -81 0
-79 -80 0
-79 -81 0
-80 -81 0
83 84 85 86 87 88 0
-83 -84 0
-83 -85 0
-83 -86 0
-83 -87 0
-83 -88 0
-84 -85 0
-84 -86 0
-84 -87 0
-84 -88 0
-85 -86 0
-85 -87 0
-85 -88 0
-86 -87 0
-86 -88 0
-87 -88 0
89 90 91 92 0
-89 -90 0
-89 -91 0
-89 -92 0
-90 -91 0
-90 -92 0
-91 -92 0
94 95 96 97 98 99 0
-94 -95 0
-94 -96 0
-94 -97 0
-94 -98 0
-94 -99 0
-95 -96 0
-95 -97 0
-95 -98 0
-95 -99 0
-96 -97 0
-96 -98 0
-96 -99 0
-97 -98 0
-97 -99 0
-98 -99 0
100 101 102 103 0
-100 -101 0
-100 -102 0
-100 -103 0
-101 -102 0
-101 -103 0
-102 -103 0
105 106 107 108 109 0
-105 -106 0
-105 -107 0
-105 -108 0
-105 -109 0
-106 -107 0
-106 -108 0
-106 -109 0
-107 -108 0
-107 -109 0
-108 -109 0
110 111 112 113 0
-110 -111 0
-110 -112 0
-110 -113 0
-111 -112 0
-111 -113 0
-112 -113 0
115 116 117 118 0
-115 -116 0
-115 -117 0
-115 -118 0
-116 -117 0
-116 -118 0
-117 -118 0
119 120 121 122 0
-119 -120 0
-119 -121 0
-119 -122 0
-120 -121 0
-120 -122 0
-121 -122 0
124 125 126 127 128 129 0
-124 -125 0
-124 -126 0
-124 -127 0
-124 -128 0
-124 -129 0
-125 -126 0
-125 -127 0
-125 -128 0
-125 -129 0
-126 -127 0
-126 -128 0
-126 -129 0
-127 -128 0
-127 -129 0
-128 -129 0
130 131 132 133 0
-130 -131 0
-130 -132 0
-130 -133 0
-131 -132 0
-131 -133 0
-132 -133 0
135 136 137 138 139 140 0
-135 -136 0
-135 -137 0
-135 -138 0
-135 -139 0
-135 -140 0
-136 -137 0
-136 -138 0
-136 -139 0
-136 -140 0
-137 -138 0
-137 -139 0
-137 -140 0
-138 -139 0
-138 -140 0
-139 -140 0
141 142 143 144 0
-141 -142 0
-141 -143 0
-141 -144 0
-142 -143 0
-142 -144 0
-143 -144 0
146 147 148 149 150 0
-146 -147 0
-146 -148 0
-146 -149 0
-146 -150 0
-147 -148 0
-147 -149 0
-147 -150 0
-148 -149 0
-148 -150 0
-149 -150 0
151 152 153 154 0
-151 -152 0
-151 -153 0
-151 -154 0
-152 -153 0
-152 -154 0
-153 -154 0
156 157 158 159 0
-156 -157 0
-156 -158 0
-156 -159 0
-157 -158 0
-157 -159 0
-158 -159 0
160 161 162 163 0
-160 -161 0
-160 -162 0
-160 -163 0
-161 -162 0
-161 -163 0
-162 -163 0
165 166 167 168 169 170 0
-165 -166 0
-165 -167 0
-165 -168 0
-165 -169 0
-165 -170 0
-166 -167 0
-166 -168 0
-166 -169 0
-166 -170 0
-167 -168 0
-167 -169 0
-167 -170 0
-168 -169 0
-168 -170 0
-169 -170 0
171 172 173 174 0
-171 -172 0
-171 -173 0
-171 -174 0
-172 -173 0
-172 -174 0
-173 -174 0
176 177 178 179 180 181 0
-176 -177 0
-176 -178 0
-176 -179 0
-176 -180 0
-176 -181 0
-177 -178 0
-177 -179 0
-177 -180 0
-177 -181 0
-178 -179 0
-178 -180 0
-178 -181 0
-179 -180 0
-179 -181 0
-180 -181 0
182 183 184 185 0
-182 -183 0
-182 -184 0
-182 -185 0
-183 -184 0
-183 -185 0
-184 -185 0
187 188 189 190 191 0
-187 -188 0
-187 -189 0
-187 -190 0
-187 -191 0
-188 -189 0
-188 -190 0
-188 -191 0
-189 -190 0
-189 -191 0
-190 -191 0
192 193 194 195 0
-192 -193 0
-192 -194 0
-192 -195 0
-193 -194 0
-193 -195 0
-194 -195 0
197 198 199 200 0
-197 -198 0
-197 -199 0
-197 -200 0
-198 -199 0
-198 -200 0
-199 -200 0
201 202 203 204 0
-201 -202 0
-201 -203 0
-201 -204 0
-202 -203 0
-202 -204 0
-203 -204 0
-1 -7 -12 -18 0
-1 -8 -12 -19 0
-1 -9 -12 -20 0
-1 -10 -12 -21 0
-2 -7 -13 -18 0
-2 -8 -13 -19 0
-2 -9 -13 -20 0
-2 -10 -13 -21 0
-3 -7 -14 -18 0
-3 -8 -14 -19 0
-3 -9 -14 -20 0
-3 -10 -14 -21 0
-4 -7 -15 -18 0
-4 -8 -15 -19 0
-4 -9 -15 -20 0
-4 -10 -15 -21 0
-5 -7 -16 -18 0
-5 -8 -16 -19 0
-5 -9 -16 -20 0
-5 -10 -16 -21 0
-6 -7 -17 -18 0
-6 -8 -17 -19 0
-6 -9 -17 -20 0
-6 -10 -17 -21 0
-1 -7 -23 -28 0
-1 -8 -23 -29 0
-1 -9 -23 -30 0
-1 -10 -23 -31 0
-2 -7 -23 -28 0
-2 -8 -23 -29 0
-2 -9 -23 -30 0
-2 -10 -23 -31 0
-2 -7 -24 -28 0
-2 -8 -24 -29 0
-2 -9 -24 -30 0
-2 -10 -24 -31 0
-3 -7 -24 -28 0
-3 -8 -24 -29 0
-3 -9 -24 -30 0
-3 -10 -24 -31 0
-3 -7 -25 -28 0
-3 -8 -25 -29 0
-3 -9 -25 -30 0
-3 -10 -25 -31 0
-4 -7 -25 -28 0
-4 -8 -25 -29 0
-4 -9 -25 -30 0
-4 -10 -25 -31 0
-4 -7 -26 -28 0
-4 -8 -26 -29 0
-4 -9 -26 -30 0
-4 -10 -26 -31 0
-5 -7 -26 -28 0
-5 -8 -26 -29 0
-5 -9 -26 -30 0
-5 -10 -26 -31 0
-5 -7 -27 -28 0
-5 -8 -27 -29 0
-5 -9 -27 -30 0
-5 -10 -27 -31 0
-6 -7 -27 -28 0
-6 -8 -27 -29 0
-6 -9 -27 -30 0
-6 -10 -27 -31 0
-1 -7 -33 -37 0
-1 -8 -33 -38 0
-1 -9 -33 -39 0
-1 -10 -33 -40 0
-2 -7 -33 -37 0
-2 -8 -33 -38 0
-2 -9 -33 -39 0
-2 -10 -33 -40 0
-2 -7 -34 -37 0
-2 -8 -34 -38 0
-2 -9 -34 -39 0
-2 -10 -34 -40 0
-3 -7 -33 -37 0
-3 -8 -33 -38 0
-3 -9 -33 -39 0
-3 -10 -33 -40 0
-3 -7 -34 -37 0
-3 -8 -34 -38 0
-3 -9 -34 -39 0
-3 -10 -34 -40 0
-3 -7 -35 -37 0
-3 -8 -35 -38 0
-3 -9 -35 -39 0
-3 -10 -35 -40 0
-4 -7 -34 -37 0
-4 -8 -34 -38 0
-4 -9 -34 -39 0
-4 -10 -34 -40 0
-4 -7 -35 -37 0
-4 -8 -35 -38 0
-4 -9 -35 -39 0
-4 -10 -35 -40 0
-4 -7 -36 -37 0
-4 -8 -36 -38 0
-4 -9 -36 -39 0
-4 -10 -36 -40 0
-5 -7 -35 -37 0
-5 -8 -35 -38 0
-5 -9 -35 -39 0
-5 -10 -35 -40 0
-5 -7 -36 -37 0
-5 -8 -36 -38 0
-5 -9 -36 -39 0
-5 -10 -36 -40 0
-6 -7 -36 -37 0
-6 -8 -36 -38 0
-6 -9 -36 -39 0
-6 -10 -36 -40 0
-12 -18 -23 -28 0
-12 -19 -23 -29 0
-12 -20 -23 -30 0
-12 -21 -23 -31 0
-13 -18 -23 -28 0
-13 -19 -23 -29 0
-13 -20 -23 -30 0
-13 -21 -23 -31 0
-13 -18 -24 -28 0
-13 -19 -24 -29 0
-13 -20 -24 -30 0
-13 -21 -24 -31 0
-14 -18 -24 -28 0
-14 -19 -24 -29 0
-14 -20 -24 -30 0
-14 -21 -24 -31 0
-14 -18 -25 -28 0
-14 -19 -25 -29 0
-14 -20 -25 -30 0
-14 -21 -25 -31 0
-15 -18 -25 -28 0
-15 -19 -25 -29 0
-15 -20 -25 -30 0
-15 -21 -25 -31 0
-15 -18 -26 -28 0
-15 -19 -26 -29 0
-15 -20 -26 -30 0
-15 -21 -26 -31 0
-16 -18 -26 -28 0
-16 -19 -26 -29 0
-16 -20 -26 -30 0
-16 -21 -26 -31 0
-16 -18 -27 -28 0
-16 -19 -27 -29 0
-16 -20 -27 -30 0
-16 -21 -27 -31 0
-17 -18 -27 -28 0
-17 -19 -27 -29 0
-17 -20 -27 -30 0
-17 -21 -27 -31 0
-12 -18 -33 -37 0
-12 -19 -33 -38 0
-12 -20 -33 -39 0
-12 -21 -33 -40 0
-13 -18 -33 -37 0
-13 -19 -33 -38 0
-13 -20 -33 -39 0
-13 -21 -33 -40 0
-13 -18 -34 -37 0
-13 -19 -34 -38 0
-13 -20 -34 -39 0
-13 -21 -34 -40 0
-14 -18 -33 -37 0
-14 -19 -33 -38 0
-14 -20 -33 -39 0
-14 -21 -33 -40 0
-14 -18 -34 -37 0
-14 -19 -34 -38 0
-14 -20 -34 -39 0
-14 -21 -34 -40 0
-14 -18 -35 -37 0
-14 -19 -35 -38 0
-14 -20 -35 -39 0
-14 -21 -35 -40 0
-15 -18 -34 -37 0
-15 -19 -34 -38 0
-15 -20 -34 -39 0
-15 -21 -34 -40 0
-15 -18 -35 -37 0
-15 -19 -35 -38 0
-15 -20 -35 -39 0
-15 -21 -35 -40 0
-15 -18 -36 -37 0
-15 -19 -36 -38 0
-15 -20 -36 -39 0
-15 -21 -36 -40 0
-16 -18 -35 -37 0
-16 -19 -35 -38 0
-16 -20 -35 -39 0
-16 -21 -35 -40 0
-16 -18 -36 -37 0
-16 -19 -36 -38 0
-16 -20 -36 -39 0
-16 -21 -36 -40 0
-17 -18 -36 -37 0
-17 -19 -36 -38 0
-17 -20 -36 -39 0
-17 -21 -36 -40 0
-23 -28 -33 -37 0
-23 -29 -33 -38 0
-23 -30 -33 -39 0
-23 -31 -33 -40 0
-23 -28 -34 -37 0
-23 -29 -34 -38 0
-23 -30 -34 -39 0
-23 -31 -34 -40 0
-24 -28 -33 -37 0
-24 -29 -33 -38 0
-24 -30 -33 -39 0
-24 -31 -33 -40 0
-24 -28 -34 -37 0
-24 -29 -34 -38 0
-24 -30 -34 -39 0
-24 -31 -34 -40 0
-24 -28 -35 -37 0
-24 -29 -35 -38 0
-24 -30 -35 -39 0
-24 -31 -35 -40 0
-25 -28 -33 -37 0
-25 -29 -33 -38 0
-25 -30 -33 -39 0
-25 -31 -33 -40 0
-25 -28 -34 -37 0
-25 -29 -34 -38 0
-25 -30 -34 -39 0
-25 -31 -34 -40 0
-25 -28 -35 -37 0
-25 -29 -35 -38 0
-25 -30 -35 -39 0
-25 -31 -35 -40 0
-25 -28 -36 -37 0
-25 -29 -36 -38 0
-25 -30 -36 -39 0
-25 -31 -36 -40 0
-26 -28 -34 -37 0
-26 -29 -34 -38 0
-26 -30 -34 -39 0
-26 -31 -34 -40 0
-26 -28 -35 -37 0
-26 -29 -35 -38 0
-26 -30 -35 -39 0
-26 -31 -35 -40 0
-26 -28 -36 -37 0
-26 -29 -36 -38 0
-26 -30 -36 -39 0
-26 -31 -36 -40 0
-27 -28 -35 -37 0
-27 -29 -35 -38 0
-27 -30 -35 -39 0
-27 -31 -35 -40 0
-27 -28 -36 -37 0
-27 -29 -36 -38 0
-27 -30 -36 -39 0
-27 -31 -36 -40 0
-42 -48 -53 -59 0
-42 -49 -53 -60 0
-42 -50 -53 -61 0
-42 -51 -53 -62 0
-43 -48 -54 -59 0
-43 -49 -54 -60 0
-43 -50 -54 -61 0
-43 -51 -54 -62 0
-44 -48 -55 -59 0
-44 -49 -55 -60 0
-44 -50 -55 -61 0
-44 -51 -55 -62 0
-45 -48 -56 -59 0
-45 -49 -56 -60 0
-45 -50 -56 -61 0
-45 -51 -56 -62 0
-46 -48 -57 -59 0
-46 -49 -57 -60 0
-46 -50 -57 -61 0
-46 -51 -57 -62 0
-47 -48 -58 -59 0
-47 -49 -58 -60 0
-47 -50 -58 -61 0
-47 -51 -58 -62 0
-42 -48 -64 -69 0
-42 -49 -64 -70 0
-42 -50 -64 -71 0
-42 -51 -64 -72 0
-43 -48 -64 -69 0
-43 -49 -64 -70 0
-43 -50 -64 -71 0
-43 -51 -64 -72 0
-43 -48 -65 -69 0
-43 -49 -65 -70 0
-43 -50 -65 -71 0
-43 -51 -65 -72 0
-44 -48 -65 -69 0
-44 -49 -65 -70 0
-44 -50 -65 -71 0
-44 -51 -65 -72 0
-44 -48 -66 -69 0
-44 -49 -66 -70 0
-44 -50 -66 -71 0
-44 -51 -66 -72 0
-45 -48 -66 -69 0
-45 -49 -66 -70 0
-45 -50 -66 -71 0
-45 -51 -66 -72 0
-45 -48 -67 -69 0
-45 -49 -67 -70 0
-45 -50 -67 -71 0
-45 -51 -67 -72 0
-46 -48 -67 -69 0
-46 -49 -67 -70 0
-46 -50 -67 -71 0
-46 -51 -67 -72 0
-46 -48 -68 -69 0
-46 -49 -68 -70 0
-46 -50 -68 -71 0
-46 -51 -68 -72 0
-47 -48 -68 -69 0
-47 -49 -68 -70 0
-47 -50 -68 -71 0
-47 -51 -68 -72 0
-42 -48 -74 -78 0
-42 -49 -74 -79 0
-42 -50 -74 -80 0
-42 -51 -74 -81 0
-43 -48 -74 -78 0
-43 -49 -74 -79 0
-43 -50 -74 -80 0
-43 -51 -74 -81 0
-43 -48 -75 -78 0
-43 -49 -75 -79 0
-43 -50 -75 -80 0
-43 -51 -75 -81 0
-44 -48 -74 -78 0
-44 -49 -74 -79 0
-44 -50 -74 -80 0
-44 -51 -74 -81 0
-44 -48 -75 -78 0
-44 -49 -75 -79 0
-44 -50 -75 -80 0
-44 -51 -75 -81 0
-44 -48 -76 -78 0
-44 -49 -76 -79 0
-44 -50 -76 -80 0
-44 -51 -76 -81 0
-45 -48 -75 -78 0
-45 -49 -75 -79 0
-45 -50 -75 -80 0
-45 -51 -75 -81 0
-45 -48 -76 -78 0
-45 -49 -76 -79 0
-45 -50 -76 -80 0
-45 -51 -76 -81 0
-45 -48 -77 -78 0
-45 -49 -77 -79 0
-45 -50 -77 -80 0
-45 -51 -77 -81 0
-46 -48 -76 -78 0
-46 -49 -76 -79 0
-46 -50 -76 -80 0
-46 -51 -76 -81 0
-46 -48 -77 -78 0
-46 -49 -77 -79 0
-46 -50 -77 -80 0
-46 -51 -77 -81 0
-47 -48 -77 -78 0
-47 -49 -77 -79 0
-47 -50 -77 -80 0
-47 -51 -77 -81 0
-53 -59 -64 -69 0
-53 -60 -64 -70 0
-53 -61 -64 -71 0
-53 -62 -64 -72 0
-54 -59 -64 -69 0
-54 -60 -64 -70 0
-54 -61 -64 -71 0
-54 -62 -64 -72 0
-54 -59 -65 -69 0
-54 -60 -65 -70 0
-54 -61 -65 -71 0
-54 -62 -65 -72 0
-55 -59 -65 -69 0
-55 -60 -65 -70 0
-55 -61 -65 -71 0
-55 -62 -65 -72 0
-55 -59 -66 -69 0
-55 -60 -66 -70 0
-55 -61 -66 -71 0
-55 -62 -66 -72 0
-56 -59 -66 -69 0
-56 -60 -66 -70 0
-56 -61 -66 -71 0
-56 -62 -66 -72 0
-56 -59 -67 -69 0
-56 -60 -67 -70 0
-56 -61 -67 -71 0
-56 -62 -67 -72 0
-57 -59 -67 -69 0
-57 -60 -67 -70 0
-57 -61 -67 -71 0
-57 -62 -67 -72 0
-57 -59 -68 -69 0
-57 -60 -68 -70 0
-57 -61 -68 -71 0
-57 -62 -68 -72 0
-58 -59 -68 -69 0
-58 -60 -68 -70 0
-58 -61 -68 -71 0
-58 -62 -68 -72 0
-53 -59 -74 -78 0
-53 -60 -74 -79 0
-53 -61 -74 -80 0
-53 -62 -74 -81 0
-54 -59 -74 -78 0
-54 -60 -74 -79 0
-54 -61 -74 -80 0
-54 -62 -74 -81 0
-54 -59 -75 -78 0
-54 -60 -75 -79 0
-54 -61 -75 -80 0
-54 -62 -75 -81 0
-55 -59 -74 -78 0
-55 -60 -74 -79 0
-55 -61 -74 -80 0
-55 -62 -74 -81 0
-55 -59 -75 -78 0
-55 -60 -75 -79 0
-55 -61 -75 -80 0
-55 -62 -75 -81 0
-55 -59 -76 -78 0
-55 -60 -76 -79 0
-55 -61 -76 -80 0
-55 -62 -76 -81 0
-56 -59 -75 -78 0
-56 -60 -75 -79 0
-56 -61 -75 -80 0
-56 -62 -75 -81 0
-56 -59 -76 -78 0
-56 -60 -76 -79 0
-56 -61 -76 -80 0
-56 -62 -76 -81 0
-56 -59 -77 -78 0
-56 -60 -77 -79 0
-56 -61 -77 -80 0
-56 -62 -77 -81 0
-57 -59 -76 -78 0
-57 -60 -76 -79 0
-57 -61 -76 -80 0
-57 -62 -76 -81 0
-57 -59 -77 -78 0
-57 -60 -77 -79 0
-57 -61 -77 -80 0
-57 -62 -77 -81 0
-58 -59 -77 -78 0
-58 -60 -77 -79 0
-58 -61 -77 -80 0
-58 -62 -77 -81 0
-64 -69 -74 -78 0
-64 -70 -74 -79 0
-64 -71 -74 -80 0
-64 -72 -74 -81 0
-64 -69 -75 -78 0
-64 -70 -75 -79 0
-64 -71 -75 -80 0
-64 -72 -75 -81 0
-65 -69 -74 -78 0
-65 -70 -74 -79 0
-65 -71 -74 -80 0
-65 -72 -74 -81 0
-65 -69 -75 -78 0
-65 -70 -75 -79 0
-65 -71 -75 -80 0
-65 -72 -75 -81 0
-65 -69 -76 -78 0
-65 -70 -76 -79 0
-65 -71 -76 -80 0
-65 -72 -76 -81 0
-66 -69 -74 -78 0
-66 -70 -74 -79 0
-66 -71 -74 -80 0
-66 -72 -74 -81 0
-66 -69 -75 -78 0
-66 -70 -75 -79 0
-66 -71 -75 -80 0
-66 -72 -75 -81 0
-66 -69 -76 -78 0
-66 -70 -76 -79 0
-66 -71 -76 -80 0
-66 -72 -76 -81 0
-66 -69 -77 -78 0
-66 -70 -77 -79 0
-66 -71 -77 -80 0
-66 -72 -77 -81 0
-67 -69 -75 -78 0
-67 -70 -75 -79 0
-67 -71 -75 -80 0
-67 -72 -75 -81 0
-67 -69 -76 -78 0
-67 -70 -76 -79 0
-67 -71 -76 -80 0
-67 -72 -76 -81 0
-67 -69 -77 -78 0
-67 -70 -77 -79 0
-67 -71 -77 -80 0
-67 -72 -77 -81 0
-68 -69 -76 -78 0
-68 -70 -76 -79 0
-68 -71 -76 -80 0
-68 -72 -76 -81 0
-68 -69 -77 -78 0
-68 -70 -77 -79 0
-68 -71 -77 -80 0
-68 -72 -77 -81 0
-83 -89 -94 -100 0
-83 -90 -94 -101 0
-83 -91 -94 -102 0
-83 -92 -94 -103 0
-84 -89 -95 -100 0
-84 -90 -95 -101 0
-84 -91 -95 -102 0
-84 -92 -95 -103 0
-85 -89 -96 -100 0
-85 -90 -96 -101 0
-85 -91 -96 -102 0
-85 -92 -96 -103 0
-86 -89 -97 -100 0
-86 -90 -97 -101 0
-86 -91 -97 -102 0
-86 -92 -97 -103 0
-87 -89 -98 -100 0
-87 -90 -98 -101 0
-87 -91 -98 -102 0
-87 -92 -98 -103 0
-88 -89 -99 -100 0
-88 -90 -99 -101 0
-88 -91 -99 -102 0
-88 -92 -99 -103 0
-83 -89 -105 -110 0
-83 -90 -105 -111 0
-83 -91 -105 -112 0
-83 -92 -105 -113 0
-84 -89 -105 -110 0
-84 -90 -105 -111 0
-84 -91 -105 -112 0
-84 -92 -105 -113 0
-84 -89 -106 -110 0
-84 -90 -106 -111 0
-84 -91 -106 -112 0
-84 -92 -106 -113 0
-85 -89 -106 -110 0
-85 -90 -106 -111 0
-85 -91 -106 -112 0
-85 -92 -106 -113 0
-85 -89 -107 -110 0
-85 -90 -107 -111 0
-85 -91 -107 -112 0
-85 -92 -107 -113 0
-86 -89 -107 -110 0
-86 -90 -107 -111 0
-86 -91 -107 -112 0
-86 -92 -107 -113 0
-86 -89 -108 -110 0
-86 -90 -108 -111 0
-86 -91 -108 -112 0
-86 -92 -108 -113 0
-87 -89 -108 -110 0
-87 -90 -108 -111 0
-87 -91 -108 -112 0
-87 -92 -108 -113 0
-87 -89 -109 -110 0
-87 -90 -109 -111 0
-87 -91 -109 -112 0
-87 -92 -109 -113 0
-88 -89 -109 -110 0
-88 -90 -109 -111 0
-88 -91 -109 -112 0
-88 -92 -109 -113 0
-83 -89 -115 -119 0
-83 -90 -115 -120 0
-83 -91 -115 -121 0
-83 -92 -115 -122 0
-84 -89 -115 -119 0
-84 -90 -115 -120 0
-84 -91 -115 -121 0
-84 -92 -115 -122 0
-84 -89 -116 -119 0
-84 -90 -116 -120 0
-84 -91 -116 -121 0
-84 -92 -116 -122 0
-85 -89 -115 -119 0
-85 -90 -115 -120 0
-85 -91 -115 -121 0
-85 -92 -115 -122 0
-85 -89 -116 -119 0
-85 -90 -116 -120 0
-85 -91 -116 -121 0
-85 -92 -116 -122 0
-85 -89 -117 -119 0
-85 -90 -117 -120 0
-85 -91 -117 -121 0
-85 -92 -117 -122 0
-86 -89 -116 -119 0
-86 -90 -116 -120 0
-86 -91 -116 -121 0
-86 -92 -116 -122 0
-86 -89 -117 -119 0
-86 -90 -117 -120 0
-86 -91 -117 -121 0
-86 -92 -117 -122 0
-86 -89 -118 -119 0
-86 -90 -118 -120 0
-86 -91 -118 -121 0
-86 -92 -118 -122 0
-87 -89 -117 -119 0
-87 -90 -117 -120 0
-87 -91 -117 -121 0
-87 -92 -117 -122 0
-87 -89 -118 -119 0
-87 -90 -118 -120 0
-87 -91 -118 -121 0
-87 -92 -118 -122 0
-88 -89 -118 -119 0
-88 -90 -118 -120 0
-88 -91 -118 -121 0
-88 -92 -118 -122 0
-94 -100 -105 -110 0
-94 -101 -105 -111 0
-94 -102 -105 -112 0
-94 -103 -105 -113 0
-95 -100 -105 -110 0
-95 -101 -105 -111 0
-95 -102 -105 -112 0
-95 -103 -105 -113 0
-95 -100 -106 -110 0
-95 -101 -106 -111 0
-95 -102 -106 -112 0
-95 -103 -106 -113 0
-96 -100 -106 -110 0
-96 -101 -106 -111 0
-96 -102 -106 -112 0
-96 -103 -106 -113 0
-96 -100 -107 -110 0
-96 -101 -107 -111 0
-96 -102 -107 -112 0
-96 -103 -107 -113 0
-97 -100 -107 -110 0
-97 -101 -107 -111 0
-97 -102 -107 -112 0
-97 -103 -107 -113 0
-97 -100 -108 -110 0
-97 -101 -108 -111 0
-97 -102 -108 -112 0
-97 -103 -108 -113 0
-98 -100 -108 -110 0
-98 -101 -108 -111 0
-98 -102 -108 -112 0
-98 -103 -108 -113 0
-98 -100 -109 -110 0
-98 -101 -109 -111 0
-98 -102 -109 -112 0
-98 -103 -109 -113 0
-99 -100 -109 -110 0
-99 -101 -109 -111 0
-99 -102 -109 -112 0
-99 -103 -109 -113 0
-94 -100 -115 -119 0
-94 -101 -115 -120 0
-94 -102 -115 -121 0
-94 -103 -115 -122 0
-95 -100 -115 -119 0
-95 -101 -115 -120 0
-95 -102 -115 -121 0
-95 -103 -115 -122 0
-95 -100 -116 -119 0
-95 -101 -116 -120 0
-95 -102 -116 -121 0
-95 -103 -116 -122 0
-96 -100 -115 -119 0
-96 -101 -115 -120 0
-96 -102 -115 -121 0
-96 -103 -115 -122 0
-96 -100 -116 -119 0
-96 -101 -116 -120 0
-96 -102 -116 -121 0
-96 -103 -116 -122 0
-96 -100 -117 -119 0
-96 -101 -117 -120 0
-96 -102 -117 -121 0
-96 -103 -117 -122 0
-97 -100 -116 -119 0
-97 -101 -116 -120 0
-97 -102 -116 -121 0
-97 -103 -116 -122 0
-97 -100 -117 -119 0
-97 -101 -117 -120 0
-97 -102 -117 -121 0
-97 -103 -117 -122 0
-97 -100 -118 -119 0
-97 -101 -118 -120 0
-97 -102 -118 -121 0
-97 -103 -118 -122 0
-98 -100 -117 -119 0
-98 -101 -117 -120 0
-98 -102 -117 -121 0
-98 -103 -117 -122 0
-98 -100 -118 -119 0
-98 -101 -118 -120 0
-98 -102 -118 -121 0
-98 -103 -118 -122 0
-99 -100 -118 -119 0
-99 -101 -118 -120 0
-99 -102 -118 -121 0
-99 -103 -118 -122 0
-105 -110 -115 -119 0
-105 -111 -115 -120 0
-105 -112 -115 -121 0
-105 -113 -115 -122 0
-105 -110 -116 -119 0
-105 -111 -116 -120 0
-105 -112 -116 -121 0
-105 -113 -116 -122 0
-106 -110 -115 -119 0
-106 -111 -115 -120 0
-106 -112 -115 -121 0
-106 -113 -115 -122 0
-106 -110 -116 -119 0
-106 -111 -116 -120 0
-106 -112 -116 -121 0
-106 -113 -116 -122 0
-106 -110 -117 -119 0
-106 -111 -117 -120 0
-106 -112 -117 -121 0
-106 -113 -117 -122 0
-107 -110 -115 -119 0
-107 -111 -115 -120 0
-107 -112 -115 -121 0
-107 -113 -115 -122 0
-107 -110 -116 -119 0
-107 -111 -116 -120 0
-107 -112 -116 -121 0
-107 -113 -116 -122 0
-107 -110 -117 -119 0
-107 -111 -117 -120 0
-107 -112 -117 -121 0
-107 -113 -117 -122 0
-107 -110 -118 -119 0
-107 -111 -118 -120 0
-107 -112 -118 -121 0
-107 -113 -118 -122 0
-108 -110 -116 -119 0
-108 -111 -116 -120 0
-108 -112 -116 -121 0
-108 -113 -116 -122 0
-108 -110 -117 -119 0
-108 -111 -117 -120 0
-108 -112 -117 -121 0
-108 -113 -117 -122 0
-108 -110 -118 -119 0
-108 -111 -118 -120 0
-108 -112 -118 -121 0
-108 -113 -118 -122 0
-109 -110 -117 -119 0
-109 -111 -117 -120 0
-109 -112 -117 -121 0
-109 -113 -117 -122 0
-109 -110 -118 -119 0
-109 -111 -118 -120 0
-109 -112 -118 -121 0
-109 -113 -118 -122 0
-124 -130 -135 -141 0
-124 -131 -135 -142 0
-124 -132 -135 -143 0
-124 -133 -135 -144 0
-125 -130 -136 -141 0
-125 -131 -136 -142 0
-125 -132 -136 -143 0
-125 -133 -136 -144 0
-126 -130 -137 -141 0
-126 -131 -137 -142 0
-126 -132 -137 -143 0
-126 -133 -137 -144 0
-127 -130 -138 -141 0
-127 -131 -138 -142 0
-127 -132 -138 -143 0
-127 -133 -138 -144 0
-128 -130 -139 -141 0
-128 -131 -139 -142 0
-128 -132 -139 -143 0
-128 -133 -139 -144 0
-129 -130 -140 -141 0
-129 -131 -140 -142 0
-129 -132 -140 -143 0
-129 -133 -140 -144 0
-124 -130 -146 -151 0
-124 -131 -146 -152 0
-124 -132 -146 -153 0
-124 -133 -146 -154 0
-125 -130 -146 -151 0
-125 -131 -146 -152 0
-125 -132 -146 -153 0
-125 -133 -146 -154 0
-125 -130 -147 -151 0
-125 -131 -147 -152 0
-125 -132 -147 -153 0
-125 -133 -147 -154 0
-126 -130 -147 -151 0
-126 -131 -147 -152 0
-126 -132 -147 -153 0
-126 -133 -147 -154 0
-126 -130 -148 -151 0
-126 -131 -148 -152 0
-126 -132 -148 -153 0
-126 -133 -148 -154 0
-127 -130 -148 -151 0
-127 -131 -148 -152 0
-127 -132 -148 -153 0
-127 -133 -148 -154 0
-127 -130 -149 -151 0
-127 -131 -149 -152 0
-127 -132 -149 -153 0
-127 -133 -149 -154 0
-128 -130 -149 -151 0
-128 -131 -149 -152 0
-128 -132 -149 -153 0
-128 -133 -149 -154 0
-128 -130 -150 -151 0
-128 -131 -150 -152 0
-128 -132 -150 -153 0
-128 -133 -150 -154 0
-129 -130 -150 -151 0
-129 -131 -150 -152 0
-129 -132 -150 -153 0
-129 -133 -150 -154 0
-124 -130 -156 -160 0
-124 -131 -156 -161 0
-124 -132 -156 -162 0
-124 -133 -156 -163 0
-125 -130 -156 -160 0
-125 -131 -156 -161 0
-125 -132 -156 -162 0
-125 -133 -156 -163 0
-125 -130 -157 -160 0
-125 -131 -157 -161 0
-125 -132 -157 -162 0
-125 -133 -157 -163 0
-126 -130 -156 -160 0
-126 -131 -156 -161 0
-126 -132 -156 -162 0
-126 -133 -156 -163 0
-126 -130 -157 -160 0
-126 -131 -157 -161 0
-126 -132 -157 -162 0
-126 -133 -157 -163 0
-126 -130 -158 -160 0
-126 -131 -158 -161 0
-126 -132 -158 -162 0
-126 -133 -158 -163 0
-127 -130 -157 -160 0
-127 -131 -157 -161 0
-127 -132 -157 -162 0
-127 -133 -157 -163 0
-127 -130 -158 -160 0
-127 -131 -158 -161 0
-127 -132 -158 -162 0
-127 -133 -158 -163 0
-127 -130 -159 -160 0
-127 -131 -159 -161 0
-127 -132 -159 -162 0
-127 -133 -159 -163 0
-128 -130 -158 -160 0
-128 -131 -158 -161 0
-128 -132 -158 -162 0
-128 -133 -158 -163 0
-128 -130 -159 -160 0
-128 -131 -159 -161 0
-128 -132 -159 -162 0
-128 -133 -159 -163 0
-129 -130 -159 -160 0
-129 -131 -159 -161 0
-129 -132 -159 -162 0
-129 -133 -159 -163 0
-135 -141 -146 -151 0
-135 -142 -146 -152 0
-135 -143 -146 -153 0
-135 -144 -146 -154 0
-136 -141 -146 -151 0
-136 -142 -146 -152 0
-136 -143 -146 -153 0
-136 -144 -146 -154 0
-136 -141 -147 -151 0
-136 -142 -147 -152 0
-136 -143 -147 -153 0
-136 -144 -147 -154 0
-137 -141 -147 -151 0
-137 -142 -147 -152 0
-137 -143 -147 -153 0
-137 -144 -147 -154 0
-137 -141 -148 -151 0
-137 -142 -148 -152 0
-137 -143 -148 -153 0
-137 -144 -148 -154 0
-138 -141 -148 -151 0
-138 -142 -148 -152 0
-138 -143 -148 -153 0
-138 -144 -148 -154 0
-138 -141 -149 -151 0
-138 -142 -149 -152 0
-138 -143 -149 -153 0
-138 -144 -149 -154 0
-139 -141 -149 -151 0
-139 -142 -149 -152 0
-139 -143 -149 -153 0
-139 -144 -149 -154 0
-139 -141 -150 -151 0
-139 -142 -150 -152 0
-139 -143 -150 -153 0
-139 -144 -150 -154 0
-140 -141 -150 -151 0
-140 -142 -150 -152 0
-140 -143 -150 -153 0
-140 -144 -150 -154 0
-135 -141 -156 -160 0
-135 -142 -156 -161 0
-135 -143 -156 -162 0
-135 -144 -156 -163 0
-136 -141 -156 -160 0
-136 -142 -156 -161 0
-136 -143 -156 -162 0
-136 -144 -156 -163 0
-136 -141 -157 -160 0
-136 -142 -157 -161 0
-136 -143 -157 -162 0
-136 -144 -157 -163 0
-137 -141 -156 -160 0
-137 -142 -156 -161 0
-137 -143 -156 -162 0
-137 -144 -156 -163 0
-137 -141 -157 -160 0
-137 -142 -157 -161 0
-137 -143 -157 -162 0
-137 -144 -157 -163 0
-137 -141 -158 -160 0
-137 -142 -158 -161 0
-137 -143 -158 -162 0
-137 -144 -158 -163 0
-138 -141 -157 -160 0
-138 -142 -157 -161 0
-138 -143 -157 -162 0
-138 -144 -157 -163 0
-138 -141 -158 -160 0
-138 -142 -158 -161 0
-138 -143 -158 -162 0
-138 -144 -158 -163 0
-138 -141 -159 -160 0
-138 -142 -159 -161 0
-138 -143 -159 -162 0
-138 -144 -159 -163 0
-139 -141 -158 -160 0
-139 -142 -158 -161 0
-139 -143 -158 -162 0
-139 -144 -158 -163 0
-139 -141 -159 -160 0
-139 -142 -159 -161 0
-139 -143 -159 -162 0
-139 -144 -159 -163 0
-140 -141 -159 -160 0
-140 -142 -159 -161 0
-140 -143 -159 -162 0
-140 -144 -159 -163 0
-146 -151 -156 -160 0
-146 -152 -156 -161 0
-146 -153 -156 -162 0
-146 -154 -156 -163 0
-146 -151 -157 -160 0
-146 -152 -157 -161 0
-146 -153 -157 -162 0
-146 -154 -157 -163 0
-147 -151 -156 -160 0
-147 -152 -156 -161 0
-147 -153 -156 -162 0
-147 -154 -156 -163 0
-147 -151 -157 -160 0
-147 -152 -157 -161 0
-147 -153 -157 -162 0
-147 -154 -157 -163 0
-147 -151 -158 -160 0
-147 -152 -158 -161 0
-147 -153 -158 -162 0
-147 -154 -158 -163 0
-148 -151 -156 -160 0
-148 -152 -156 -161 0
-148 -153 -156 -162 0
-148 -154 -156 -163 0
-148 -151 -157 -160 0
-148 -152 -157 -161 0
-148 -153 -157 -162 0
-148 -154 -157 -163 0
-148 -151 -158 -160 0
-148 -152 -158 -161 0
-148 -153 -158 -162 0
-148 -154 -158 -163 0
-148 -151 -159 -160 0
-148 -152 -159 -161 0
-148 -153 -159 -162 0
-148 -154 -159 -163 0
-149 -151 -157 -160 0
-149 -152 -157 -161 0
-149 -153 -157 -162 0
-149 -154 -157 -163 0
-149 -151 -158 -160 0
-149 -152 -158 -161 0
-149 -153 -158 -162 0
-149 -154 -158 -163 0
-149 -151 -159 -160 0
-149 -152 -159 -161 0
-149 -153 -159 -162 0
-149 -154 -159 -163 0
-150 -151 -158 -160 0
-150 -152 -158 -161 0
-150 -153 -158 -162 0
-150 -154 -158 -163 0
-150 -151 -159 -160 0
-150 -152 -159 -161 0
-150 -153 -159 -162 0
-150 -154 -159 -163 0
-165 -171 -176 -182 0
-165 -172 -176 -183 0
-165 -173 -176 -184 0
-165 -174 -176 -185 0
-166 -171 -177 -182 0
-166 -172 -177 -183 0
-166 -173 -177 -184 0
-166 -174 -177 -185 0
-167 -171 -178 -182 0
-167 -172 -178 -183 0
-167 -173 -178 -184 0
-167 -174 -178 -185 0
-168 -171 -179 -182 0
-168 -172 -179 -183 0
-168 -173 -179 -184 0
-168 -174 -179 -185 0
-169 -171 -180 -182 0
-169 -172 -180 -183 0
-169 -173 -180 -184 0
-169 -174 -180 -185 0
-170 -171 -181 -182 0
-170 -172 -181 -183 0
-170 -173 -181 -184 0
-170 -174 -181 -185 0
-165 -171 -187 -192 0
-165 -172 -187 -193 0
-165 -173 -187 -194 0
-165 -174 -187 -195 0
-166 -171 -187 -192 0
-166 -172 -187 -193 0
-166 -173 -187 -194 0
-166 -174 -187 -195 0
-166 -171 -188 -192 0
-166 -172 -188 -193 0
-166 -173 -188 -194 0
-166 -174 -188 -195 0
-167 -171 -188 -192 0
-167 -172 -188 -193 0
-167 -173 -188 -194 0
-167 -174 -188 -195 0
-167 -171 -189 -192 0
-167 -172 -189 -193 0
-167 -173 -189 -194 0
-167 -174 -189 -195 0
-168 -171 -189 -192 0
-168 -172 -189 -193 0
-168 -173 -189 -194 0
-168 -174 -189 -195 0
-168 -171 -190 -192 0
-168 -172 -190 -193 0
-168 -173 -190 -194 0
-168 -174 -190 -195 0
-169 -171 -190 -192 0
-169 -172 -190 -193 0
-169 -173 -190 -194 0
-169 -174 -190 -195 0
-169 -171 -191 -192 0
-169 -172 -191 -193 0
-169 -173 -191 -194 0
-169 -174 -191 -195 0
-170 -171 -191 -192 0
-170 -172 -191 -193 0
-170 -173 -191 -194 0
-170 -174 -191 -195 0
-165 -171 -197 -201 0
-165 -172 -197 -202 0
-165 -173 -197 -203 0
-165 -174 -197 -204 0
-166 -171 -197 -201 0
-166 -172 -197 -202 0
-166 -173 -197 -203 0
-166 -174 -197 -204 0
-166 -171 -198 -201 0
-166 -172 -198 -202 0
-166 -173 -198 -203 0
-166 -174 -198 -204 0
-167 -171 -197 -201 0
-167 -172 -197 -202 0
-167 -173 -197 -203 0
-167 -174 -197 -204 0
-167 -171 -198 -201 0
-167 -172 -198 -202 0
-167 -173 -198 -203 0
-167 -174 -198 -204 0
-167 -171 -199 -201 0
-167 -172 -199 -202 0
-167 -173 -199 -203 0
-167 -174 -199 -204 0
-168 -171 -198 -201 0
-168 -172 -198 -202 0
-168 -173 -198 -203 0
-168 -174 -198 -204 0
-168 -171 -199 -201 0
-168 -172 -199 -202 0
-168 -173 -199 -203 0
-168 -174 -199 -204 0
-168 -171 -200 -201 0
-168 -172 -200 -202 0
-168 -173 -200 -203 0
-168 -174 -200 -204 0
-169 -171 -199 -201 0
-169 -172 -199 -202 0
-169 -173 -199 -203 0
-169 -174 -199 -204 0
-169 -171 -200 -201 0
-169 -172 -200 -202 0
-169 -173 -200 -203 0
-169 -174 -200 -204 0
-170 -171 -200 -201 0
-170 -172 -200 -202 0
-170 -173 -200 -203 0
-170 -174 -200 -204 0
-176 -182 -187 -192 0
-176 -183 -187 -193 0
-176 -184 -187 -194 0
-176 -185 -187 -195 0
-177 -182 -187 -192 0
-177 -183 -187 -193 0
-177 -184 -187 -194 0
-177 -185 -187 -195 0
-177 -182 -188 -192 0
-177 -183 -188 -193 0
-177 -184 -188 -194 0
-177 -185 -188 -195 0
-178 -182 -188 -192 0
-178 -183 -188 -193 0
-178 -184 -188 -194 0
-178 -185 -188 -195 0
-178 -182 -189 -192 0
-178 -183 -189 -193 0
-178 -184 -189 -194 0
-178 -185 -189 -195 0
-179 -182 -189 -192 0
-179 -183 -189 -193 0
-179 -184 -189 -194 0
-179 -185 -189 -195 0
-179 -182 -190 -192 0
-179 -183 -190 -193 0
-179 -184 -190 -194 0
-179 -185 -190 -195 0
-180 -182 -190 -192 0
-180 -183 -190 -193 0
-180 -184 -190 -194 0
-180 -185 -190 -195 0
-180 -182 -191 -192 0
-180 -183 -191 -193 0
-180 -184 -191 -194 0
-180 -185 -191 -195 0
-181 -182 -191 -192 0
-181 -183 -191 -193 0
-181 -184 -191 -194 0
-181 -185 -191 -195 0
-176 -182 -197 -201 0
-176 -183 -197 -202 0
-176 -184 -197 -203 0
-176 -185 -197 -204 0
-177 -182 -197 -201 0
-177 -183 -197 -202 0
-177 -184 -197 -203 0
-177 -185 -197 -204 0
-177 -182 -198 -201 0
-177 -183 -198 -202 0
-177 -184 -198 -203 0
-177 -185 -198 -204 0
-178 -182 -197 -201 0
-178 -183 -197 -202 0
-178 -184 -197 -203 0
-178 -185 -197 -204 0
-178 -182 -198 -201 0
-178 -183 -198 -202 0
-178 -184 -198 -203 0
-178 -185 -198 -204 0
-178 -182 -199 -201 0
-178 -183 -199 -202 0
-178 -184 -199 -203 0
-178 -185 -199 -204 0
-179 -182 -198 -201 0
-179 -183 -198 -202 0
-179 -184 -198 -203 0
-179 -185 -198 -204 0
-179 -182 -199 -201 0
-179 -183 -199 -202 0
-179 -184 -199 -203 0
-179 -185 -199 -204 0
-179 -182 -200 -201 0
-179 -183 -200 -202 0
-179 -184 -200 -203 0
-179 -185 -200 -204 0
-180 -182 -199 -201 0
-180 -183 -199 -202 0
-180 -184 -199 -203 0
-180 -185 -199 -204 0
-180 -182 -200 -201 0
-180 -183 -200 -202 0
-180 -184 -200 -203 0
-180 -185 -200 -204 0
-181 -182 -200 -201 0
-181 -183 -200 -202 0
-181 -184 -200 -203 0
-181 -185 -200 -204 0
-187 -192 -197 -201 0
-187 -193 -197 -202 0
-187 -194 -197 -203 0
-187 -195 -197 -204 0
-187 -192 -198 -201 0
-187 -193 -198 -202 0
-187 -194 -198 -203 0
-187 -195 -198 -204 0
-188 -192 -197 -201 0
-188 -193 -197 -202 0
-188 -194 -197 -203 0
-188 -195 -197 -204 0
-188 -192 -198 -201 0
-188 -193 -198 -202 0
-188 -194 -198 -203 0
-188 -195 -198 -204 0
-188 -192 -199 -201 0
-188 -193 -199 -202 0
-188 -194 -199 -203 0
-188 -195 -199 -204 0
-189 -192 -197 -201 0
-189 -193 -197 -202 0
-189 -194 -197 -203 0
-189 -195 -197 -204 0
-189 -192 -198 -201 0
-189 -193 -198 -202 0
-189 -194 -198 -203 0
-189 -195 -198 -204 0
-189 -192 -199 -201 0
-189 -193 -199 -202 0
-189 -194 -199 -203 0
-189 -195 -199 -204 0
-189 -192 -200 -201 0
-189 -193 -200 -202 0
-189 -194 -200 -203 0
-189 -195 -200 -204 0
-190 -192 -198 -201 0
-190 -193 -198 -202 0
-190 -194 -198 -203 0
-190 -195 -198 -204 0
-190 -192 -199 -201 0
-190 -193 -199 -202 0
-190 -194 -199 -203 0
-190 -195 -199 -204 0
-190 -192 -200 -201 0
-190 -193 -200 -202 0
-190 -194 -200 -203 0
-190 -195 -200 -204 0
-191 -192 -199 -201 0
-191 -193 -199 -202 0
-191 -194 -199 -203 0
-191 -195 -199 -204 0
-191 -192 -200 -201 0
-191 -193 -200 -202 0
-191 -194 -200 -203 0
-191 -195 -200 -204 0
-1 -8 542 0
-1 -9 547 0
-1 -10 552 0
-2 -8 562 0
-2 -9 567 0
-2 -10 572 0
-3 -8 582 0
-3 -9 587 0
-3 -10 592 0
-4 -8 602 0
-4 -9 607 0
-4 -10 612 0
-5 -8 622 0
-5 -9 627 0
-5 -10 632 0
-6 -8 642 0
-6 -9 647 0
-6 -10 652 0
-12 -19 542 0
-12 -20 547 0
-12 -21 552 0
-13 -19 562 0
-13 -20 567 0
-13 -21 572 0
-14 -19 582 0
-14 -20 587 0
-14 -21 592 0
-15 -19 602 0
-15 -20 607 0
-15 -21 612 0
-16 -19 622 0
-16 -20 627 0
-16 -21 632 0
-17 -19 642 0
-17 -20 647 0
-17 -21 652 0
-23 -29 542 562 0
-23 -30 547 567 0
-23 -31 552 572 0
-24 -29 562 582 0
-24 -30 567 587 0
-24 -31 572 592 0
-25 -29 582 602 0
-25 -30 587 607 0
-25 -31 592 612 0
-26 -29 602 622 0
-26 -30 607 627 0
-26 -31 612 632 0
-27 -29 622 642 0
-27 -30 627 647 0
-27 -31 632 652 0
-33 -38 542 562 0
-33 -38 542 582 0
-33 -38 562 582 0
-33 -39 547 567 0
-33 -39 547 587 0
-33 -39 567 587 0
-33 -40 552 572 0
-33 -40 552 592 0
-33 -40 572 592 0
-34 -38 562 582 0
-34 -38 562 602 0
-34 -38 582 602 0
-34 -39 567 587 0
-34 -39 567 607 0
-34 -39 587 607 0
-34 -40 572 592 0
-34 -40 572 612 0
-34 -40 592 612 0
-35 -38 582 602 0
-35 -38 582 622 0
-35 -38 602 622 0
-35 -39 587 607 0
-35 -39 587 627 0
-35 -39 607 627 0
-35 -40 592 612 0
-35 -40 592 632 0
-35 -40 612 632 0
-36 -38 602 622 0
-36 -38 602 642 0
-36 -38 622 642 0
-36 -39 607 627 0
-36 -39 607 647 0
-36 -39 627 647 0
-36 -40 612 632 0
-36 -40 612 652 0
-36 -40 632 652 0
-42 -49 662 0
-42 -50 667 0
-42 -51 672 0
-43 -49 682 0
-43 -50 687 0
-43 -51 692 0
-44 -49 702 0
-44 -50 707 0
-44 -51 712 0
-45 -49 722 0
-45 -50 727 0
-45 -51 732 0
-46 -49 742 0
-46 -50 747 0
-46 -51 752 0
-47 -49 762 0
-47 -50 767 0
-47 -51 772 0
-53 -60 662 0
-53 -61 667 0
-53 -62 672 0
-54 -60 682 0
-54 -61 687 0
-54 -62 692 0
-55 -60 702 0
-55 -61 707 0
-55 -62 712 0
-56 -60 722 0
-56 -61 727 0
-56 -62 732 0
-57 -60 742 0
-57 -61 747 0
-57 -62 752 0
-58 -60 762 0
-58 -61 767 0
-58 -62 772 0
-64 -70 662 682 0
-64 -71 667 687 0
-64 -72 672 692 0
-65 -70 682 702 0
-65 -71 687 707 0
-65 -72 692 712 0
-66 -70 702 722 0
-66 -71 707 727 0
-66 -72 712 732 0
-67 -70 722 742 0
-67 -71 727 747 0
-67 -72 732 752 0
-68 -70 742 762 0
-68 -71 747 767 0
-68 -72 752 772 0
-74 -79 662 682 0
-74 -79 662 702 0
-74 -79 682 702 0
-74 -80 667 687 0
-74 -80 667 707 0
-74 -80 687 707 0
-74 -81 672 692 0
-74 -81 672 712 0
-74 -81 692 712 0
-75 -79 682 702 0
-75 -79 682 722 0
-75 -79 702 722 0
-75 -80 687 707 0
-75 -80 687 727 0
-75 -80 707 727 0
-75 -81 692 712 0
-75 -81 692 732 0
-75 -81 712 732 0
-76 -79 702 722 0
-76 -79 702 742 0
-76 -79 722 742 0
-76 -80 707 727 0
-76 -80 707 747 0
-76 -80 727 747 0
-76 -81 712 732 0
-76 -81 712 752 0
-76 -81 732 752 0
-77 -79 722 742 0
-77 -79 722 762 0
-77 -79 742 762 0
-77 -80 727 747 0
-77 -80 727 767 0
-77 -80 747 767 0
-77 -81 732 752 0
-77 -81 732 772 0
-77 -81 752 772 0
-83 -90 782 0
-83 -91 787 0
-83 -92 792 0
-84 -90 802 0
-84 -91 807 0
-84 -92 812 0
-85 -90 822 0
-85 -91 827 0
-85 -92 832 0
-86 -90 842 0
-86 -91 847 0
-86 -92 852 0
-87 -90 862 0
-87 -91 867 0
-87 -92 872 0
-88 -90 882 0
-88 -91 887 0
-88 -92 892 0
-94 -101 782 0
-94 -102 787 0
-94 -103 792 0
-95 -101 802 0
-95 -102 807 0
-95 -103 812 0
-96 -101 822 0
-96 -102 827 0
-96 -103 832 0
-97 -101 842 0
-97 -102 847 0
-97 -103 852 0
-98 -101 862 0
-98 -102 867 0
-98 -103 872 0
-99 -101 882 0
-99 -102 887 0
-99 -103 892 0
-105 -111 782 802 0
-105 -112 787 807 0
-105 -113 792 812 0
-106 -111 802 822 0
-106 -112 807 827 0
-106 -113 812 832 0
-107 -111 822 842 0
-107 -112 827 847 0
-107 -113 832 852 0
-108 -111 842 862 0
-108 -112 847 867 0
-108 -113 852 872 0
-109 -111 862 882 0
-109 -112 867 887 0
-109 -113 872 892 0
-115 -120 782 802 0
-115 -120 782 822 0
-115 -120 802 822 0
-115 -121 787 807 0
-115 -121 787 827 0
-115 -121 807 827 0
-115 -122 792 812 0
-115 -122 792 832 0
-115 -122 812 832 0
-116 -120 802 822 0
-116 -120 802 842 0
-116 -120 822 842 0
-116 -121 807 827 0
-116 -121 807 847 0
-116 -121 827 847 0
-116 -122 812 832 0
-116 -122 812 852 0
-116 -122 832 852 0
-117 -120 822 842 0
-117 -120 822 862 0
-117 -120 842 862 0
-117 -121 827 847 0
-117 -121 827 867 0
-117 -121 847 867 0
-117 -122 832 852 0
-117 -122 832 872 0
-117 -122 852 872 0
-118 -120 842 862 0
-118 -120 842 882 0
-118 -120 862 882 0
-118 -121 847 867 0
-118 -121 847 887 0
-118 -121 867 887 0
-118 -122 852 872 0
-118 -122 852 892 0
-118 -122 872 892 0
-124 -131 902 0
-124 -132 907 0
-124 -133 912 0
-125 -131 922 0
-125 -132 927 0
-125 -133 932 0
-126 -131 942 0
-126 -132 947 0
-126 -133 952 0
-127 -131 962 0
-127 -132 967 0
-127 -133 972 0
-128 -131 982 0
-128 -132 987 0
-128 -133 992 0
-129 -131 1002 0
-129 -132 1007 0
-129 -133 1012 0
-135 -142 902 0
-135 -143 907 0
-135 -144 912 0
-136 -142 922 0
-136 -143 927 0
-136 -144 932 0
-137 -142 942 0
-137 -143 947 0
-137 -144 952 0
-138 -142 962 0
-138 -143 967 0
-138 -144 972 0
-139 -142 982 0
-139 -143 987 0
-139 -144 992 0
-140 -142 1002 0
-140 -143 1007 0
-140 -144 1012 0
-146 -152 902 922 0
-146 -153 907 927 0
-146 -154 912 932 0
-147 -152 922 942 0
-147 -153 927 947 0
-147 -154 932 952 0
-148 -152 942 962 0
-148 -153 947 967 0
-148 -154 952 972 0
-149 -152 962 982 0
-149 -153 967 987 0
-149 -154 972 992 0
-150 -152 982 1002 0
-150 -153 987 1007 0
-150 -154 992 1012 0
-156 -161 902 922 0
-156 -161 902 942 0
-156 -161 922 942 0
-156 -162 907 927 0
-156 -162 907 947 0
-156 -162 927 947 0
-156 -163 912 932 0
-156 -163 912 952 0
-156 -163 932 952 0
-157 -161 922 942 0
-157 -161 922 962 0
-157 -161 942 962 0
-157 -162 927 947 0
-157 -162 927 967 0
-157 -162 947 967 0
-157 -163 932 952 0
-157 -163 932 972 0
-157 -163 952 972 0
-158 -161 942 962 0
-158 -161 942 982 0
-158 -161 962 982 0
-158 -162 947 967 0
-158 -162 947 987 0
-158 -162 967 987 0
-158 -163 952 972 0
-158 -163 952 992 0
-158 -163 972 992 0
-159 -161 962 982 0
-159 -161 962 1002 0
-159 -161 982 1002 0
-159 -162 967 987 0
-159 -162 967 1007 0
-159 -162 987 1007 0
-159 -163 972 992 0
-159 -163 972 1012 0
-159 -163 992 1012 0
-165 -172 1022 0
-165 -173 1027 0
-165 -174 1032 0
-166 -172 1042 0
-166 -173 1047 0
-166 -174 1052 0
-167 -172 1062 0
-167 -173 1067 0
-167 -174 1072 0
-168 -172 1082 0
-168 -173 1087 0
-168 -174 1092 0
-169 -172 1102 0
-169 -173 1107 0
-169 -174 1112 0
-170 -172 1122 0
-170 -173 1127 0
-170 -174 1132 0
-176 -183 1022 0
-176 -184 1027 0
-176 -185 1032 0
-177 -183 1042 0
-177 -184 1047 0
-177 -185 1052 0
-178 -183 1062 0
-178 -184 1067 0
-178 -185 1072 0
-179 -183 1082 0
-179 -184 1087 0
-179 -185 1092 0
-180 -183 1102 0
-180 -184 1107 0
-180 -185 1112 0
-181 -183 1122 0
-181 -184 1127 0
-181 -185 1132 0
-187 -193 1022 1042 0
-187 -194 1027 1047 0
-187 -195 1032 1052 0
-188 -193 1042 1062 0
-188 -194 1047 1067 0
-188 -195 1052 1072 0
-189 -193 1062 1082 0
-189 -194 1067 1087 0
-189 -195 1072 1092 0
-190 -193 1082 1102 0
-190 -194 1087 1107 0
-190 -195 1092 1112 0
-191 -193 1102 1122 0
-191 -194 1107 1127 0
-191 -195 1112 1132 0
-197 -202 1022 1042 0
-197 -202 1022 1062 0
-197 -202 1042 1062 0
-197 -203 1027 1047 0
-197 -203 1027 1067 0
-197 -203 1047 1067 0
-197 -204 1032 1052 0
-197 -204 1032 1072 0
-197 -204 1052 1072 0
-198 -202 1042 1062 0
-198 -202 1042 1082 0
-198 -202 1062 1082 0
-198 -203 1047 1067 0
-198 -203 1047 1087 0
-198 -203 1067 1087 0
-198 -204 1052 1072 0
-198 -204 1052 1092 0
-198 -204 1072 1092 0
-199 -202 1062 1082 0
-199 -202 1062 1102 0
-199 -202 1082 1102 0
-199 -203 1067 1087 0
-199 -203 1067 1107 0
-199 -203 1087 1107 0
-199 -204 1072 1092 0
-199 -204 1072 1112 0
-199 -204 1092 1112 0
-200 -202 1082 1102 0
-200 -202 1082 1122 0
-200 -202 1102 1122 0
-200 -203 1087 1107 0
-200 -203 1087 1127 0
-200 -203 1107 1127 0
-200 -204 1092 1112 0
-200 -204 1092 1132 0
-200 -204 1112 1132 0
-1 -7 -547 -11 0
-1 -7 11 547 0
-1 -8 -552 -11 0
-1 -8 11 552 0
-1 -9 -557 -11 0
-1 -9 11 557 0
-1 -10 11 0
-2 -7 -567 -11 0
-2 -7 11 567 0
-2 -8 -572 -11 0
-2 -8 11 572 0
-2 -9 -577 -11 0
-2 -9 11 577 0
-2 -10 11 0
-3 -7 -587 -11 0
-3 -7 11 587 0
-3 -8 -592 -11 0
-3 -8 11 592 0
-3 -9 -597 -11 0
-3 -9 11 597 0
-3 -10 11 0
-4 -7 -607 -11 0
-4 -7 11 607 0
-4 -8 -612 -11 0
-4 -8 11 612 0
-4 -9 -617 -11 0
-4 -9 11 617 0
-4 -10 11 0
-5 -7 -627 -11 0
-5 -7 11 627 0
-5 -8 -632 -11 0
-5 -8 11 632 0
-5 -9 -637 -11 0
-5 -9 11 637 0
-5 -10 11 0
-6 -7 -647 -11 0
-6 -7 11 647 0
-6 -8 -652 -11 0
-6 -8 11 652 0
-6 -9 -657 -11 0
-6 -9 11 657 0
-6 -10 11 0
-12 -18 -547 -22 0
-12 -18 22 547 0
-12 -19 -552 -22 0
-12 -19 22 552 0
-12 -20 -557 -22 0
-12 -20 22 557 0
-12 -21 22 0
-13 -18 -567 -22 0
-13 -18 22 567 0
-13 -19 -572 -22 0
-13 -19 22 572 0
-13 -20 -577 -22 0
-13 -20 22 577 0
-13 -21 22 0
-14 -18 -587 -22 0
-14 -18 22 587 0
-14 -19 -592 -22 0
-14 -19 22 592 0
-14 -20 -597 -22 0
-14 -20 22 597 0
-14 -21 22 0
-15 -18 -607 -22 0
-15 -18 22 607 0
-15 -19 -612 -22 0
-15 -19 22 612 0
-15 -20 -617 -22 0
-15 -20 22 617 0
-15 -21 22 0
-16 -18 -627 -22 0
-16 -18 22 627 0
-16 -19 -632 -22 0
-16 -19 22 632 0
-16 -20 -637 -22 0
-16 -20 22 637 0
-16 -21 22 0
-17 -18 -647 -22 0
-17 -18 22 647 0
-17 -19 -652 -22 0
-17 -19 22 652 0
-17 -20 -657 -22 0
-17 -20 22 657 0
-17 -21 22 0
-23 -28 -547 -32 0
-23 -28 -567 -32 0
-23 -28 32 547 567 0
-23 -29 -552 -32 0
-23 -29 -572 -32 0
-23 -29 32 552 572 0
-23 -30 -557 -32 0
-23 -30 -577 -32 0
-23 -30 32 557 577 0
-23 -31 32 0
-24 -28 -567 -32 0
-24 -28 -587 -32 0
-24 -28 32 567 587 0
-24 -29 -572 -32 0
-24 -29 -592 -32 0
-24 -29 32 572 592 0
-24 -30 -577 -32 0
-24 -30 -597 -32 0
-24 -30 32 577 597 0
-24 -31 32 0
-25 -28 -587 -32 0
-25 -28 -607 -32 0
-25 -28 32 587 607 0
-25 -29 -592 -32 0
-25 -29 -612 -32 0
-25 -29 32 592 612 0
-25 -30 -597 -32 0
-25 -30 -617 -32 0
-25 -30 32 597 617 0
-25 -31 32 0
-26 -28 -607 -32 0
-26 -28 -627 -32 0
-26 -28 32 607 627 0
-26 -29 -612 -32 0
-26 -29 -632 -32 0
-26 -29 32 612 632 0
-26 -30 -617 -32 0
-26 -30 -637 -32 0
-26 -30 32 617 637 0
-26 -31 32 0
-27 -28 -627 -32 0
-27 -28 -647 -32 0
-27 -28 32 627 647 0
-27 -29 -632 -32 0
-27 -29 -652 -32 0
-27 -29 32 632 652 0
-27 -30 -637 -32 0
-27 -30 -657 -32 0
-27 -30 32 637 657 0
-27 -31 32 0
-33 -37 -547 -41 0
-33 -37 -567 -41 0
-33 -37 -587 -41 0
-33 -37 41 547 567 587 0
-33 -38 -552 -41 0
-33 -38 -572 -41 0
-33 -38 -592 -41 0
-33 -38 41 552 572 592 0
-33 -39 -557 -41 0
-33 -39 -577 -41 0
-33 -39 -597 -41 0
-33 -39 41 557 577 597 0
-33 -40 41 0
-34 -37 -567 -41 0
-34 -37 -587 -41 0
-34 -37 -607 -41 0
-34 -37 41 567 587 607 0
-34 -38 -572 -41 0
-34 -38 -592 -41 0
-34 -38 -612 -41 0
-34 -38 41 572 592 612 0
-34 -39 -577 -41 0
-34 -39 -597 -41 0
-34 -39 -617 -41 0
-34 -39 41 577 597 617 0
-34 -40 41 0
-35 -37 -587 -41 0
-35 -37 -607 -41 0
-35 -37 -627 -41 0
-35 -37 41 587 607 627 0
-35 -38 -592 -41 0
-35 -38 -612 -41 0
-35 -38 -632 -41 0
-35 -38 41 592 612 632 0
-35 -39 -597 -41 0
-35 -39 -617 -41 0
-35 -39 -637 -41 0
-35 -39 41 597 617 637 0
-35 -40 41 0
-36 -37 -607 -41 0
-36 -37 -627 -41 0
-36 -37 -647 -41 0
-36 -37 41 607 627 647 0
-36 -38 -612 -41 0
-36 -38 -632 -41 0
-36 -38 -652 -41 0
-36 -38 41 612 632 652 0
-36 -39 -617 -41 0
-36 -39 -637 -41 0
-36 -39 -657 -41 0
-36 -39 41 617 637 657 0
-36 -40 41 0
-42 -48 -667 -52 0
-42 -48 52 667 0
-42 -49 -672 -52 0
-42 -49 52 672 0
-42 -50 -677 -52 0
-42 -50 52 677 0
-42 -51 52 0
-43 -48 -687 -52 0
-43 -48 52 687 0
-43 -49 -692 -52 0
-43 -49 52 692 0
-43 -50 -697 -52 0
-43 -50 52 697 0
-43 -51 52 0
-44 -48 -707 -52 0
-44 -48 52 707 0
-44 -49 -712 -52 0
-44 -49 52 712 0
-44 -50 -717 -52 0
-44 -50 52 717 0
-44 -51 52 0
-45 -48 -727 -52 0
-45 -48 52 727 0
-45 -49 -732 -52 0
-45 -49 52 732 0
-45 -50 -737 -52 0
-45 -50 52 737 0
-45 -51 52 0
-46 -48 -747 -52 0
-46 -48 52 747 0
-46 -49 -752 -52 0
-46 -49 52 752 0
-46 -50 -757 -52 0
-46 -50 52 757 0
-46 -51 52 0
-47 -48 -767 -52 0
-47 -48 52 767 0
-47 -49 -772 -52 0
-47 -49 52 772 0
-47 -50 -777 -52 0
-47 -50 52 777 0
-47 -51 52 0
-53 -59 -667 -63 0
-53 -59 63 667 0
-53 -60 -672 -63 0
-53 -60 63 672 0
-53 -61 -677 -63 0
-53 -61 63 677 0
-53 -62 63 0
-54 -59 -687 -63 0
-54 -59 63 687 0
-54 -60 -692 -63 0
-54 -60 63 692 0
-54 -61 -697 -63 0
-54 -61 63 697 0
-54 -62 63 0
-55 -59 -707 -63 0
-55 -59 63 707 0
-55 -60 -712 -63 0
-55 -60 63 712 0
-55 -61 -717 -63 0
-55 -61 63 717 0
-55 -62 63 0
-56 -59 -727 -63 0
-56 -59 63 727 0
-56 -60 -732 -63 0
-56 -60 63 732 0
-56 -61 -737 -63 0
-56 -61 63 737 0
-56 -62 63 0
-57 -59 -747 -63 0
-57 -59 63 747 0
-57 -60 -752 -63 0
-57 -60 63 752 0
-57 -61 -757 -63 0
-57 -61 63 757 0
-57 -62 63 0
-58 -59 -767 -63 0
-58 -59 63 767 0
-58 -60 -772 -63 0
-58 -60 63 772 0
-58 -61 -777 -63 0
-58 -61 63 777 0
-58 -62 63 0
-64 -69 -667 -73 0
-64 -69 -687 -73 0
-64 -69 73 667 687 0
-64 -70 -672 -73 0
-64 -70 -692 -73 0
-64 -70 73 672 692 0
-64 -71 -677 -73 0
-64 -71 -697 -73 0
-64 -71 73 677 697 0
-64 -72 73 0
-65 -69 -687 -73 0
-65 -69 -707 -73 0
-65 -69 73 687 707 0
-65 -70 -692 -73 0
-65 -70 -712 -73 0
-65 -70 73 692 712 0
-65 -71 -697 -73 0
-65 -71 -717 -73 0
-65 -71 73 697 717 0
-65 -72 73 0
-66 -69 -707 -73 0
-66 -69 -727 -73 0
-66 -69 73 707 727 0
-66 -70 -712 -73 0
-66 -70 -732 -73 0
-66 -70 73 712 732 0
-66 -71 -717 -73 0
-66 -71 -737 -73 0
-66 -71 73 717 737 0
-66 -72 73 0
-67 -69 -727 -73 0
-67 -69 -747 -73 0
-67 -69 73 727 747 0
-67 -70 -732 -73 0
-67 -70 -752 -73 0
-67 -70 73 732 752 0
-67 -71 -737 -73 0
-67 -71 -757 -73 0
-67 -71 73 737 757 0
-67 -72 73 0
-68 -69 -747 -73 0
-68 -69 -767 -73 0
-68 -69 73 747 767 0
-68 -70 -752 -73 0
-68 -70 -772 -73 0
-68 -70 73 752 772 0
-68 -71 -757 -73 0
-68 -71 -777 -73 0
-68 -71 73 757 777 0
-68 -72 73 0
-74 -78 -667 -82 0
-74 -78 -687 -82 0
-74 -78 -707 -82 0
-74 -78 82 667 687 707 0
-74 -79 -672 -82 0
-74 -79 -692 -82 0
-74 -79 -712 -82 0
-74 -79 82 672 692 712 0
-74 -80 -677 -82 0
-74 -80 -697 -82 0
-74 -80 -717 -82 0
-74 -80 82 677 697 717 0
-74 -81 82 0
-75 -78 -687 -82 0
-75 -78 -707 -82 0
-75 -78 -727 -82 0
-75 -78 82 687 707 727 0
-75 -79 -692 -82 0
-75 -79 -712 -82 0
-75 -79 -732 -82 0
-75 -79 82 692 712 732 0
-75 -80 -697 -82 0
-75 -80 -717 -82 0
-75 -80 -737 -82 0
-75 -80 82 697 717 737 0
-75 -81 82 0
-76 -78 -707 -82 0
-76 -78 -727 -82 0
-76 -78 -747 -82 0
-76 -78 82 707 727 747 0
-76 -79 -712 -82 0
-76 -79 -732 -82 0
-76 -79 -752 -82 0
-76 -79 82 712 732 752 0
-76 -80 -717 -82 0
-76 -80 -737 -82 0
-76 -80 -757 -82 0
-76 -80 82 717 737 757 0
-76 -81 82 0
-77 -78 -727 -82 0
-77 -78 -747 -82 0
-77 -78 -767 -82 0
-77 -78 82 727 747 767 0
-77 -79 -732 -82 0
-77 -79 -752 -82 0
-77 -79 -772 -82 0
-77 -79 82 732 752 772 0
-77 -80 -737 -82 0
-77 -80 -757 -82 0
-77 -80 -777 -82 0
-77 -80 82 737 757 777 0
-77 -81 82 0
-83 -89 -787 -93 0
-83 -89 93 787 0
-83 -90 -792 -93 0
-83 -90 93 792 0
-83 -91 -797 -93 0
-83 -91 93 797 0
-83 -92 93 0
-84 -89 -807 -93 0
-84 -89 93 807 0
-84 -90 -812 -93 0
-84 -90 93 812 0
-84 -91 -817 -93 0
-84 -91 93 817 0
-84 -92 93 0
-85 -89 -827 -93 0
-85 -89 93 827 0
-85 -90 -832 -93 0
-85 -90 93 832 0
-85 -91 -837 -93 0
-85 -91 93 837 0
-85 -92 93 0
-86 -89 -847 -93 0
-86 -89 93 847 0
-86 -90 -852 -93 0
-86 -90 93 852 0
-86 -91 -857 -93 0
-86 -91 93 857 0
-86 -92 93 0
-87 -89 -867 -93 0
-87 -89 93 867 0
-87 -90 -872 -93 0
-87 -90 93 872 0
-87 -91 -877 -93 0
-87 -91 93 877 0
-87 -92 93 0
-88 -89 -887 -93 0
-88 -89 93 887 0
-88 -90 -892 -93 0
-88 -90 93 892 0
-88 -91 -897 -93 0
-88 -91 93 897 0
-88 -92 93 0
-94 -100 -787 -104 0
-94 -100 104 787 0
-94 -101 -792 -104 0
-94 -101 104 792 0
-94 -102 -797 -104 0
-94 -102 104 797 0
-94 -103 104 0
-95 -100 -807 -104 0
-95 -100 104 807 0
-95 -101 -812 -104 0
-95 -101 104 812 0
-95 -102 -817 -104 0
-95 -102 104 817 0
-95 -103 104 0
-96 -100 -827 -104 0
-96 -100 104 827 0
-96 -101 -832 -104 0
-96 -101 104 832 0
-96 -102 -837 -104 0
-96 -102 104 837 0
-96 -103 104 0
-97 -100 -847 -104 0
-97 -100 104 847 0
-97 -101 -852 -104 0
-97 -101 104 852 0
-97 -102 -857 -104 0
-97 -102 104 857 0
-97 -103 104 0
-98 -100 -867 -104 0
-98 -100 104 867 0
-98 -101 -872 -104 0
-98 -101 104 872 0
-98 -102 -877 -104 0
-98 -102 104 877 0
-98 -103 104 0
-99 -100 -887 -104 0
-99 -100 104 887 0
-99 -101 -892 -104 0
-99 -101 104 892 0
-99 -102 -897 -104 0
-99 -102 104 897 0
-99 -103 104 0
-105 -110 -787 -114 0
-105 -110 -807 -114 0
-105 -110 114 787 807 0
-105 -111 -792 -114 0
-105 -111 -812 -114 0
-105 -111 114 792 812 0
-105 -112 -797 -114 0
-105 -112 -817 -114 0
-105 -112 114 797 817 0
-105 -113 114 0
-106 -110 -807 -114 0
-106 -110 -827 -114 0
-106 -110 114 807 827 0
-106 -111 -812 -114 0
-106 -111 -832 -114 0
-106 -111 114 812 832 0
-106 -112 -817 -114 0
-106 -112 -837 -114 0
-106 -112 114 817 837 0
-106 -113 114 0
-107 -110 -827 -114 0
-107 -110 -847 -114 0
-107 -110 114 827 847 0
-107 -111 -832 -114 0
-107 -111 -852 -114 0
-107 -111 114 832 852 0
-107 -112 -837 -114 0
-107 -112 -857 -114 0
-107 -112 114 837 857 0
-107 -113 114 0
-108 -110 -847 -114 0
-108 -110 -867 -114 0
-108 -110 114 847 867 0
-108 -111 -852 -114 0
-108 -111 -872 -114 0
-108 -111 114 852 872 0
-108 -112 -857 -114 0
-108 -112 -877 -114 0
-108 -112 114 857 877 0
-108 -113 114 0
-109 -110 -867 -114 0
-109 -110 -887 -114 0
-109 -110 114 867 887 0
-109 -111 -872 -114 0
-109 -111 -892 -114 0
-109 -111 114 872 892 0
-109 -112 -877 -114 0
-109 -112 -897 -114 0
-109 -112 114 877 897 0
-109 -113 114 0
-115 -119 -787 -123 0
-115 -119 -807 -123 0
-115 -119 -827 -123 0
-115 -119 123 787 807 827 0
-115 -120 -792 -123 0
-115 -120 -812 -123 0
-115 -120 -832 -123 0
-115 -120 123 792 812 832 0
-115 -121 -797 -123 0
-115 -121 -817 -123 0
-115 -121 -837 -123 0
-115 -121 123 797 817 837 0
-115 -122 123 0
-116 -119 -807 -123 0
-116 -119 -827 -123 0
-116 -119 -847 -123 0
-116 -119 123 807 827 847 0
-116 -120 -812 -123 0
-116 -120 -832 -123 0
-116 -120 -852 -123 0
-116 -120 123 812 832 852 0
-116 -121 -817 -123 0
-116 -121 -837 -123 0
-116 -121 -857 -123 0
-116 -121 123 817 837 857 0
-116 -122 123 0
-117 -119 -827 -123 0
-117 -119 -847 -123 0
-117 -119 -867 -123 0
-117 -119 123 827 847 867 0
-117 -120 -832 -123 0
-117 -120 -852 -123 0
-117 -120 -872 -123 0
-117 -120 123 832 852 872 0
-117 -121 -837 -123 0
-117 -121 -857 -123 0
-117 -121 -877 -123 0
-117 -121 123 837 857 877 0
-117 -122 123 0
-118 -119 -847 -123 0
-118 -119 -867 -123 0
-118 -119 -887 -123 0
-118 -119 123 847 867 887 0
-118 -120 -852 -123 0
-118 -120 -872 -123 0
-118 -120 -892 -123 0
-118 -120 123 852 872 892 0
-118 -121 -857 -123 0
-118 -121 -877 -123 0
-118 -121 -897 -123 0
-118 -121 123 857 877 897 0
-118 -122 123 0
-124 -130 -907 -134 0
-124 -130 134 907 0
-124 -131 -912 -134 0
-124 -131 134 912 0
-124 -132 -917 -134 0
-124 -132 134 917 0
-124 -133 134 0
-125 -130 -927 -134 0
-125 -130 134 927 0
-125 -131 -932 -134 0
-125 -131 134 932 0
-125 -132 -937 -134 0
-125 -132 134 937 0
-125 -133 134 0
-126 -130 -947 -134 0
-126 -130 134 947 0
-126 -131 -952 -134 0
-126 -131 134 952 0
-126 -132 -957 -134 0
-126 -132 134 957 0
-126 -133 134 0
-127 -130 -967 -134 0
-127 -130 134 967 0
-127 -131 -972 -134 0
-127 -131 134 972 0
-127 -132 -977 -134 0
-127 -132 134 977 0
-127 -133 134 0
-128 -130 -987 -134 0
-128 -130 134 987 0
-128 -131 -992 -134 0
-128 -131 134 992 0
-128 -132 -997 -134 0
-128 -132 134 997 0
-128 -133 134 0
-129 -130 -1007 -134 0
-129 -130 134 1007 0
-129 -131 -1012 -134 0
-129 -131 134 1012 0
-129 -132 -1017 -134 0
-129 -132 134 1017 0
-129 -133 134 0
-135 -141 -907 -145 0
-135 -141 145 907 0
-135 -142 -912 -145 0
-135 -142 145 912 0
-135 -143 -917 -145 0
-135 -143 145 917 0
-135 -144 145 0
-136 -141 -927 -145 0
-136 -141 145 927 0
-136 -142 -932 -145 0
-136 -142 145 932 0
-136 -143 -937 -145 0
-136 -143 145 937 0
-136 -144 145 0
-137 -141 -947 -145 0
-137 -141 145 947 0
-137 -142 -952 -145 0
-137 -142 145 952 0
-137 -143 -957 -145 0
-137 -143 145 957 0
-137 -144 145 0
-138 -141 -967 -145 0
-138 -141 145 967 0
-138 -142 -972 -145 0
-138 -142 145 972 0
-138 -143 -977 -145 0
-138 -143 145 977 0
-138 -144 145 0
-139 -141 -987 -145 0
-139 -141 145 987 0
-139 -142 -992 -145 0
-139 -142 145 992 0
-139 -143 -997 -145 0
-139 -143 145 997 0
-139 -144 145 0
-140 -141 -1007 -145 0
-140 -141 145 1007 0
-140 -142 -1012 -145 0
-140 -142 145 1012 0
-140 -143 -1017 -145 0
-140 -143 145 1017 0
-140 -144 145 0
-146 -151 -907 -155 0
-146 -151 -927 -155 0
-146 -151 155 907 927 0
-146 -152 -912 -155 0
-146 -152 -932 -155 0
-146 -152 155 912 932 0
-146 -153 -917 -155 0
-146 -153 -937 -155 0
-146 -153 155 917 937 0
-146 -154 155 0
-147 -151 -927 -155 0
-147 -151 -947 -155 0
-147 -151 155 927 947 0
-147 -152 -932 -155 0
-147 -152 -952 -155 0
-147 -152 155 932 952 0
-147 -153 -937 -155 0
-147 -153 -957 -155 0
-147 -153 155 937 957 0
-147 -154 155 0
-148 -151 -947 -155 0
-148 -151 -967 -155 0
-148 -151 155 947 967 0
-148 -152 -952 -155 0
-148 -152 -972 -155 0
-148 -152 155 952 972 0
-148 -153 -957 -155 0
-148 -153 -977 -155 0
-148 -153 155 957 977 0
-148 -154 155 0
-149 -151 -967 -155 0
-149 -151 -987 -155 0
-149 -151 155 967 987 0
-149 -152 -972 -155 0
-149 -152 -992 -155 0
-149 -152 155 972 992 0
-149 -153 -977 -155 0
-149 -153 -997 -155 0
-149 -153 155 977 997 0
-149 -154 155 0
-150 -151 -987 -155 0
-150 -151 -1007 -155 0
-150 -151 155 987 1007 0
-150 -152 -992 -155 0
-150 -152 -1012 -155 0
-150 -152 155 992 1012 0
-150 -153 -997 -155 0
-150 -153 -1017 -155 0
-150 -153 155 997 1017 0
-150 -154 155 0
-156 -160 -907 -164 0
-156 -160 -927 -164 0
-156 -160 -947 -164 0
-156 -160 164 907 927 947 0
-156 -161 -912 -164 0
-156 -161 -932 -164 0
-156 -161 -952 -164 0
-156 -161 164 912 932 952 0
-156 -162 -917 -164 0
-156 -162 -937 -164 0
-156 -162 -957 -164 0
-156 -162 164 917 937 957 0
-156 -163 164 0
-157 -160 -927 -164 0
-157 -160 -947 -164 0
-157 -160 -967 -164 0
-157 -160 164 927 947 967 0
-157 -161 -932 -164 0
-157 -161 -952 -164 0
-157 -161 -972 -164 0
-157 -161 164 932 952 972 0
-157 -162 -937 -164 0
-157 -162 -957 -164 0
-157 -162 -977 -164 0
-157 -162 164 937 957 977 0
-157 -163 164 0
-158 -160 -947 -164 0
-158 -160 -967 -164 0
-158 -160 -987 -164 0
-158 -160 164 947 967 987 0
-158 -161 -952 -164 0
-158 -161 -972 -164 0
-158 -161 -992 -164 0
-158 -161 164 952 972 992 0
-158 -162 -957 -164 0
-158 -162 -977 -164 0
-158 -162 -997 -164 0
-158 -162 164 957 977 997 0
-158 -163 164 0
-159 -160 -967 -164 0
-159 -160 -987 -164 0
-159 -160 -1007 -164 0
-159 -160 164 967 987 1007 0
-159 -161 -972 -164 0
-159 -161 -992 -164 0
-159 -161 -1012 -164 0
-159 -161 164 972 992 1012 0
-159 -162 -977 -164 0
-159 -162 -997 -164 0
-159 -162 -1017 -164 0
-159 -162 164 977 997 1017 0
-159 -163 164 0
-165 -171 -1027 -175 0
-165 -171 175 1027 0
-165 -172 -1032 -175 0
-165 -172 175 1032 0
-165 -173 -1037 -175 0
-165 -173 175 1037 0
-165 -174 175 0
-166 -171 -1047 -175 0
-166 -171 175 1047 0
-166 -172 -1052 -175 0
-166 -172 175 1052 0
-166 -173 -1057 -175 0
-166 -173 175 1057 0
-166 -174 175 0
-167 -171 -1067 -175 0
-167 -171 175 1067 0
-167 -172 -1072 -175 0
-167 -172 175 1072 0
-167 -173 -1077 -175 0
-167 -173 175 1077 0
-167 -174 175 0
-168 -171 -1087 -175 0
-168 -171 175 1087 0
-168 -172 -1092 -175 0
-168 -172 175 1092 0
-168 -173 -1097 -175 0
-168 -173 175 1097 0
-168 -174 175 0
-169 -171 -1107 -175 0
-169 -171 175 1107 0
-169 -172 -1112 -175 0
-169 -172 175 1112 0
-169 -173 -1117 -175 0
-169 -173 175 1117 0
-169 -174 175 0
-170 -171 -1127 -175 0
-170 -171 175 1127 0
-170 -172 -1132 -175 0
-170 -172 175 1132 0
-170 -173 -1137 -175 0
-170 -173 175 1137 0
-170 -174 175 0
-176 -182 -1027 -186 0
-176 -182 186 1027 0
-176 -183 -1032 -186 0
-176 -183 186 1032 0
-176 -184 -1037 -186 0
-176 -184 186 1037 0
-176 -185 186 0
-177 -182 -1047 -186 0
-177 -182 186 1047 0
-177 -183 -1052 -186 0
-177 -183 186 1052 0
-177 -184 -1057 -186 0
-177 -184 186 1057 0
-177 -185 186 0
-178 -182 -1067 -186 0
-178 -182 186 1067 0
-178 -183 -1072 -186 0
-178 -183 186 1072 0
-178 -184 -1077 -186 0
-178 -184 186 1077 0
-178 -185 186 0
-179 -182 -1087 -186 0
-179 -182 186 1087 0
-179 -183 -1092 -186 0
-179 -183 186 1092 0
-179 -184 -1097 -186 0
-179 -184 186 1097 0
-179 -185 186 0
-180 -182 -1107 -186 0
-180 -182 186 1107 0
-180 -183 -1112 -186 0
-180 -183 186 1112 0
-180 -184 -1117 -186 0
-180 -184 186 1117 0
-180 -185 186 0
-181 -182 -1127 -186 0
-181 -182 186 1127 0
-181 -183 -1132 -186 0
-181 -183 186 1132 0
-181 -184 -1137 -186 0
-181 -184 186 1137 0
-181 -185 186 0
-187 -192 -1027 -196 0
-187 -192 -1047 -196 0
-187 -192 196 1027 1047 0
-187 -193 -1032 -196 0
-187 -193 -1052 -196 0
-187 -193 196 1032 1052 0
-187 -194 -1037 -196 0
-187 -194 -1057 -196 0
-187 -194 196 1037 1057 0
-187 -195 196 0
-188 -192 -1047 -196 0
-188 -192 -1067 -196 0
-188 -192 196 1047 1067 0
-188 -193 -1052 -196 0
-188 -193 -1072 -196 0
-188 -193 196 1052 1072 0
-188 -194 -1057 -196 0
-188 -194 -1077 -196 0
-188 -194 196 1057 1077 0
-188 -195 196 0
-189 -192 -1067 -196 0
-189 -192 -1087 -196 0
-189 -192 196 1067 1087 0
-189 -193 -1072 -196 0
-189 -193 -1092 -196 0
-189 -193 196 1072 1092 0
-189 -194 -1077 -196 0
-189 -194 -1097 -196 0
-189 -194 196 1077 1097 0
-189 -195 196 0
-190 -192 -1087 -196 0
-190 -192 -1107 -196 0
-190 -192 196 1087 1107 0
-190 -193 -1092 -196 0
-190 -193 -1112 -196 0
-190 -193 196 1092 1112 0
-190 -194 -1097 -196 0
-190 -194 -1117 -196 0
-190 -194 196 1097 1117 0
-190 -195 196 0
-191 -192 -1107 -196 0
-191 -192 -1127 -196 0
-191 -192 196 1107 1127 0
-191 -193 -1112 -196 0
-191 -193 -1132 -196 0
-191 -193 196 1112 1132 0
-191 -194 -1117 -196 0
-191 -194 -1137 -196 0
-191 -194 196 1117 1137 0
-191 -195 196 0
-197 -201 -1027 -205 0
-197 -201 -1047 -205 0
-197 -201 -1067 -205 0
-197 -201 205 1027 1047 1067 0
-197 -202 -1032 -205 0
-197 -202 -1052 -205 0
-197 -202 -1072 -205 0
-197 -202 205 1032 1052 1072 0
-197 -203 -1037 -205 0
-197 -203 -1057 -205 0
-197 -203 -1077 -205 0
-197 -203 205 1037 1057 1077 0
-197 -204 205 0
-198 -201 -1047 -205 0
-198 -201 -1067 -205 0
-198 -201 -1087 -205 0
-198 -201 205 1047 1067 1087 0
-198 -202 -1052 -205 0
-198 -202 -1072 -205 0
-198 -202 -1092 -205 0
-198 -202 205 1052 1072 1092 0
-198 -203 -1057 -205 0
-198 -203 -1077 -205 0
-198 -203 -1097 -205 0
-198 -203 205 1057 1077 1097 0
-198 -204 205 0
-199 -201 -1067 -205 0
-199 -201 -1087 -205 0
-199 -201 -1107 -205 0
-199 -201 205 1067 1087 1107 0
-199 -202 -1072 -205 0
-199 -202 -1092 -205 0
-199 -202 -1112 -205 0
-199 -202 205 1072 1092 1112 0
-199 -203 -1077 -205 0
-199 -203 -1097 -205 0
-199 -203 -1117 -205 0
-199 -203 205 1077 1097 1117 0
-199 -204 205 0
-200 -201 -1087 -205 0
-200 -201 -1107 -205 0
-200 -201 -1127 -205 0
-200 -201 205 1087 1107 1127 0
-200 -202 -1092 -205 0
-200 -202 -1112 -205 0
-200 -202 -1132 -205 0
-200 -202 205 1092 1112 1132 0
-200 -203 -1097 -205 0
-200 -203 -1117 -205 0
-200 -203 -1137 -205 0
-200 -203 205 1097 1117 1137 0
-200 -204 205 0
-206 11 0
-206 -21 0
-206 -1 -18 -8 0
-206 -1 -19 -9 0
-206 -1 -20 -10 0
-206 -13 0
-206 -14 0
-206 -15 0
-206 -16 0
-206 -17 0
-206 -18 -23 -29 0
-206 -18 -23 -30 0
-206 -18 -23 -31 0
-206 -19 -23 -30 0
-206 -19 -23 -31 0
-206 -20 -23 -31 0
-206 -18 -33 -38 0
-206 -18 -33 -39 0
-206 -18 -33 -40 0
-206 -19 -33 -39 0
-206 -19 -33 -40 0
-206 -20 -33 -40 0
-206 42 0
-206 -18 49 0
-206 -19 50 0
-206 -20 51 0
-206 -63 0
-207 11 0
-207 -21 0
-207 -2 -18 -8 0
-207 -2 -19 -9 0
-207 -2 -20 -10 0
-207 -12 0
-207 -14 0
-207 -15 0
-207 -16 0
-207 -17 0
-207 -18 -23 -29 0
-207 -18 -23 -30 0
-207 -18 -23 -31 0
-207 -19 -23 -30 0
-207 -19 -23 -31 0
-207 -20 -23 -31 0
-207 -18 -24 -29 0
-207 -18 -24 -30 0
-207 -18 -24 -31 0
-207 -19 -24 -30 0
-207 -19 -24 -31 0
-207 -20 -24 -31 0
-207 -18 -33 -38 0
-207 -18 -33 -39 0
-207 -18 -33 -40 0
-207 -19 -33 -39 0
-207 -19 -33 -40 0
-207 -20 -33 -40 0
-207 -18 -34 -38 0
-207 -18 -34 -39 0
-207 -18 -34 -40 0
-207 -19 -34 -39 0
-207 -19 -34 -40 0
-207 -20 -34 -40 0
-207 43 0
-207 -18 49 0
-207 -19 50 0
-207 -20 51 0
-207 -63 0
-208 11 0
-208 -21 0
-208 -3 -18 -8 0
-208 -3 -19 -9 0
-208 -3 -20 -10 0
-208 -12 0
-208 -13 0
-208 -15 0
-208 -16 0
-208 -17 0
-208 -18 -24 -29 0
-208 -18 -24 -30 0
-208 -18 -24 -31 0
-208 -19 -24 -30 0
-208 -19 -24 -31 0
-208 -20 -24 -31 0
-208 -18 -25 -29 0
-208 -18 -25 -30 0
-208 -18 -25 -31 0
-208 -19 -25 -30 0
-208 -19 -25 -31 0
-208 -20 -25 -31 0
-208 -18 -33 -38 0
-208 -18 -33 -39 0
-208 -18 -33 -40 0
-208 -19 -33 -39 0
-208 -19 -33 -40 0
-208 -20 -33 -40 0
-208 -18 -34 -38 0
-208 -18 -34 -39 0
-208 -18 -34 -40 0
-208 -19 -34 -39 0
-208 -19 -34 -40 0
-208 -20 -34 -40 0
-208 -18 -35 -38 0
-208 -18 -35 -39 0
-208 -18 -35 -40 0
-208 -19 -35 -39 0
-208 -19 -35 -40 0
-208 -20 -35 -40 0
-208 44 0
-208 -18 49 0
-208 -19 50 0
-208 -20 51 0
-208 -63 0
-209 11 0
-209 -21 0
-209 -4 -18 -8 0
-209 -4 -19 -9 0
-209 -4 -20 -10 0
-209 -12 0
-209 -13 0
-209 -14 0
-209 -16 0
-209 -17 0
-209 -18 -25 -29 0
-209 -18 -25 -30 0
-209 -18 -25 -31 0
-209 -19 -25 -30 0
-209 -19 -25 -31 0
-209 -20 -25 -31 0
-209 -18 -26 -29 0
-209 -18 -26 -30 0
-209 -18 -26 -31 0
-209 -19 -26 -30 0
-209 -19 -26 -31 0
-209 -20 -26 -31 0
-209 -18 -34 -38 0
-209 -18 -34 -39 0
-209 -18 -34 -40 0
-209 -19 -34 -39 0
-209 -19 -34 -40 0
-209 -20 -34 -40 0
-209 -18 -35 -38 0
-209 -18 -35 -39 0
-209 -18 -35 -40 0
-209 -19 -35 -39 0
-209 -19 -35 -40 0
-209 -20 -35 -40 0
-209 -18 -36 -38 0
-209 -18 -36 -39 0
-209 -18 -36 -40 0
-209 -19 -36 -39 0
-209 -19 -36 -40 0
-209 -20 -36 -40 0
-209 45 0
-209 -18 49 0
-209 -19 50 0
-209 -20 51 0
-209 -63 0
-210 11 0
-210 -21 0
-210 -5 -18 -8 0
-210 -5 -19 -9 0
-210 -5 -20 -10 0
-210 -12 0
-210 -13 0
-210 -14 0
-210 -15 0
-210 -17 0
-210 -18 -26 -29 0
-210 -18 -26 -30 0
-210 -18 -26 -31 0
-210 -19 -26 -30 0
-210 -19 -26 -31 0
-210 -20 -26 -31 0
-210 -18 -27 -29 0
-210 -18 -27 -30 0
-210 -18 -27 -31 0
-210 -19 -27 -30 0
-210 -19 -27 -31 0
-210 -20 -27 -31 0
-210 -18 -35 -38 0
-210 -18 -35 -39 0
-210 -18 -35 -40 0
-210 -19 -35 -39 0
-210 -19 -35 -40 0
-210 -20 -35 -40 0
-210 -18 -36 -38 0
-210 -18 -36 -39 0
-210 -18 -36 -40 0
-210 -19 -36 -39 0
-210 -19 -36 -40 0
-210 -20 -36 -40 0
-210 46 0
-210 -18 49 0
-210 -19 50 0
-210 -20 51 0
-210 -63 0
-211 11 0
-211 -21 0
-211 -6 -18 -8 0
-211 -6 -19 -9 0
-211 -6 -20 -10 0
-211 -12 0
-211 -13 0
-211 -14 0
-211 -15 0
-211 -16 0
-211 -18 -27 -29 0
-211 -18 -27 -30 0
-211 -18 -27 -31 0
-211 -19 -27 -30 0
-211 -19 -27 -31 0
-211 -20 -27 -31 0
-211 -18 -36 -38 0
-211 -18 -36 -39 0
-211 -18 -36 -40 0
-211 -19 -36 -39 0
-211 -19 -36 -40 0
-211 -20 -36 -40 0
-211 47 0
-211 -18 49 0
-211 -19 50 0
-211 -20 51 0
-211 -63 0
-212 11 0
-212 -31 0
-212 -1 -28 -8 0
-212 -1 -29 -9 0
-212 -1 -30 -10 0
-212 -24 0
-212 -25 0
-212 -26 0
-212 -27 0
-212 -28 -12 -19 0
-212 -28 -12 -20 0
-212 -28 -12 -21 0
-212 -29 -12 -20 0
-212 -29 -12 -21 0
-212 -30 -12 -21 0
-212 -28 -33 -38 0
-212 -28 -33 -39 0
-212 -28 -33 -40 0
-212 -29 -33 -39 0
-212 -29 -33 -40 0
-212 -30 -33 -40 0
-212 42 0
-212 -28 49 0
-212 -29 50 0
-212 -30 51 0
-212 -73 0
-213 11 0
-213 -31 0
-213 -2 -28 -8 0
-213 -2 -29 -9 0
-213 -2 -30 -10 0
-213 -25 0
-213 -26 0
-213 -27 0
-213 -28 -13 -19 0
-213 -28 -13 -20 0
-213 -28 -13 -21 0
-213 -29 -13 -20 0
-213 -29 -13 -21 0
-213 -30 -13 -21 0
-213 -28 -33 -38 0
-213 -28 -33 -39 0
-213 -28 -33 -40 0
-213 -29 -33 -39 0
-213 -29 -33 -40 0
-213 -30 -33 -40 0
-213 -28 -34 -38 0
-213 -28 -34 -39 0
-213 -28 -34 -40 0
-213 -29 -34 -39 0
-213 -29 -34 -40 0
-213 -30 -34 -40 0
-213 43 0
-213 -28 49 0
-213 -29 50 0
-213 -30 51 0
-213 -73 0
-214 11 0
-214 -31 0
-214 -3 -28 -8 0
-214 -3 -29 -9 0
-214 -3 -30 -10 0
-214 -23 0
-214 -26 0
-214 -27 0
-214 -28 -14 -19 0
-214 -28 -14 -20 0
-214 -28 -14 -21 0
-214 -29 -14 -20 0
-214 -29 -14 -21 0
-214 -30 -14 -21 0
-214 -28 -33 -38 0
-214 -28 -33 -39 0
-214 -28 -33 -40 0
-214 -29 -33 -39 0
-214 -29 -33 -40 0
-214 -30 -33 -40 0
-214 -28 -34 -38 0
-214 -28 -34 -39 0
-214 -28 -34 -40 0
-214 -29 -34 -39 0
-214 -29 -34 -40 0
-214 -30 -34 -40 0
-214 -28 -35 -38 0
-214 -28 -35 -39 0
-214 -28 -35 -40 0
-214 -29 -35 -39 0
-214 -29 -35 -40 0
-214 -30 -35 -40 0
-214 44 0
-214 -28 49 0
-214 -29 50 0
-214 -30 51 0
-214 -73 0
-215 11 0
-215 -31 0
-215 -4 -28 -8 0
-215 -4 -29 -9 0
-215 -4 -30 -10 0
-215 -23 0
-215 -24 0
-215 -27 0
-215 -28 -15 -19 0
-215 -28 -15 -20 0
-215 -28 -15 -21 0
-215 -29 -15 -20 0
-215 -29 -15 -21 0
-215 -30 -15 -21 0
-215 -28 -34 -38 0
-215 -28 -34 -39 0
-215 -28 -34 -40 0
-215 -29 -34 -39 0
-215 -29 -34 -40 0
-215 -30 -34 -40 0
-215 -28 -35 -38 0
-215 -28 -35 -39 0
-215 -28 -35 -40 0
-215 -29 -35 -39 0
-215 -29 -35 -40 0
-215 -30 -35 -40 0
-215 -28 -36 -38 0
-215 -28 -36 -39 0
-215 -28 -36 -40 0
-215 -29 -36 -39 0
-215 -29 -36 -40 0
-215 -30 -36 -40 0
-215 45 0
-215 -28 49 0
-215 -29 50 0
-215 -30 51 0
-215 -73 0
-216 11 0
-216 -31 0
-216 -5 -28 -8 0
-216 -5 -29 -9 0
-216 -5 -30 -10 0
-216 -23 0
-216 -24 0
-216 -25 0
-216 -28 -16 -19 0
-216 -28 -16 -20 0
-216 -28 -16 -21 0
-216 -29 -16 -20 0
-216 -29 -16 -21 0
-216 -30 -16 -21 0
-216 -28 -35 -38 0
-216 -28 -35 -39 0
-216 -28 -35 -40 0
-216 -29 -35 -39 0
-216 -29 -35 -40 0
-216 -30 -35 -40 0
-216 -28 -36 -38 0
-216 -28 -36 -39 0
-216 -28 -36 -40 0
-216 -29 -36 -39 0
-216 -29 -36 -40 0
-216 -30 -36 -40 0
-216 46 0
-216 -28 49 0
-216 -29 50 0
-216 -30 51 0
-216 -73 0
-217 11 0
-217 -31 0
-217 -6 -28 -8 0
-217 -6 -29 -9 0
-217 -6 -30 -10 0
-217 -23 0
-217 -24 0
-217 -25 0
-217 -26 0
-217 -28 -17 -19 0
-217 -28 -17 -20 0
-217 -28 -17 -21 0
-217 -29 -17 -20 0
-217 -29 -17 -21 0
-217 -30 -17 -21 0
-217 -28 -36 -38 0
-217 -28 -36 -39 0
-217 -28 -36 -40 0
-217 -29 -36 -39 0
-217 -29 -36 -40 0
-217 -30 -36 -40 0
-217 47 0
-217 -28 49 0
-217 -29 50 0
-217 -30 51 0
-217 -73 0
-218 11 0
-218 -40 0
-218 -1 -37 -8 0
-218 -1 -38 -9 0
-218 -1 -39 -10 0
-218 -34 0
-218 -35 0
-218 -36 0
-218 -37 -12 -19 0
-218 -37 -12 -20 0
-218 -37 -12 -21 0
-218 -38 -12 -20 0
-218 -38 -12 -21 0
-218 -39 -12 -21 0
-218 -37 -23 -29 0
-218 -37 -23 -30 0
-218 -37 -23 -31 0
-218 -38 -23 -30 0
-218 -38 -23 -31 0
-218 -39 -23 -31 0
-218 42 0
-218 -37 49 0
-218 -38 50 0
-218 -39 51 0
-218 -82 0
-219 11 0
-219 -40 0
-219 -2 -37 -8 0
-219 -2 -38 -9 0
-219 -2 -39 -10 0
-219 -35 0
-219 -36 0
-219 -37 -13 -19 0
-219 -37 -13 -20 0
-219 -37 -13 -21 0
-219 -38 -13 -20 0
-219 -38 -13 -21 0
-219 -39 -13 -21 0
-219 -37 -23 -29 0
-219 -37 -23 -30 0
-219 -37 -23 -31 0
-219 -38 -23 -30 0
-219 -38 -23 -31 0
-219 -39 -23 -31 0
-219 -37 -24 -29 0
-219 -37 -24 -30 0
-219 -37 -24 -31 0
-219 -38 -24 -30 0
-219 -38 -24 -31 0
-219 -39 -24 -31 0
-219 43 0
-219 -37 49 0
-219 -38 50 0
-219 -39 51 0
-219 -82 0
-220 11 0
-220 -40 0
-220 -3 -37 -8 0
-220 -3 -38 -9 0
-220 -3 -39 -10 0
-220 -36 0
-220 -37 -14 -19 0
-220 -37 -14 -20 0
-220 -37 -14 -21 0
-220 -38 -14 -20 0
-220 -38 -14 -21 0
-220 -39 -14 -21 0
-220 -37 -24 -29 0
-220 -37 -24 -30 0
-220 -37 -24 -31 0
-220 -38 -24 -30 0
-220 -38 -24 -31 0
-220 -39 -24 -31 0
-220 -37 -25 -29 0
-220 -37 -25 -30 0
-220 -37 -25 -31 0
-220 -38 -25 -30 0
-220 -38 -25 -31 0
-220 -39 -25 -31 0
-220 44 0
-220 -37 49 0
-220 -38 50 0
-220 -39 51 0
-220 -82 0
-221 11 0
-221 -40 0
-221 -4 -37 -8 0
-221 -4 -38 -9 0
-221 -4 -39 -10 0
-221 -33 0
-221 -37 -15 -19 0
-221 -37 -15 -20 0
-221 -37 -15 -21 0
-221 -38 -15 -20 0
-221 -38 -15 -21 0
-221 -39 -15 -21 0
-221 -37 -25 -29 0
-221 -37 -25 -30 0
-221 -37 -25 -31 0
-221 -38 -25 -30 0
-221 -38 -25 -31 0
-221 -39 -25 -31 0
-221 -37 -26 -29 0
-221 -37 -26 -30 0
-221 -37 -26 -31 0
-221 -38 -26 -30 0
-221 -38 -26 -31 0
-221 -39 -26 -31 0
-221 45 0
-221 -37 49 0
-221 -38 50 0
-221 -39 51 0
-221 -82 0
-222 11 0
-222 -40 0
-222 -5 -37 -8 0
-222 -5 -38 -9 0
-222 -5 -39 -10 0
-222 -33 0
-222 -34 0
-222 -37 -16 -19 0
-222 -37 -16 -20 0
-222 -37 -16 -21 0
-222 -38 -16 -20 0
-222 -38 -16 -21 0
-222 -39 -16 -21 0
-222 -37 -26 -29 0
-222 -37 -26 -30 0
-222 -37 -26 -31 0
-222 -38 -26 -30 0
-222 -38 -26 -31 0
-222 -39 -26 -31 0
-222 -37 -27 -29 0
-222 -37 -27 -30 0
-222 -37 -27 -31 0
-222 -38 -27 -30 0
-222 -38 -27 -31 0
-222 -39 -27 -31 0
-222 46 0
-222 -37 49 0
-222 -38 50 0
-222 -39 51 0
-222 -82 0
-223 11 0
-223 -40 0
-223 -6 -37 -8 0
-223 -6 -38 -9 0
-223 -6 -39 -10 0
-223 -33 0
-223 -34 0
-223 -35 0
-223 -37 -17 -19 0
-223 -37 -17 -20 0
-223 -37 -17 -21 0
-223 -38 -17 -20 0
-223 -38 -17 -21 0
-223 -39 -17 -21 0
-223 -37 -27 -29 0
-223 -37 -27 -30 0
-223 -37 -27 -31 0
-223 -38 -27 -30 0
-223 -38 -27 -31 0
-223 -39 -27 -31 0
-223 47 0
-223 -37 49 0
-223 -38 50 0
-223 -39 51 0
-223 -82 0
-224 11 0
-224 -1 -7 0
-224 -12 -18 0
-224 -12 -19 0
-224 -12 -20 0
-224 -12 -21 0
-224 -23 -28 0
-224 -23 -29 0
-224 -23 -30 0
-224 -23 -31 0
-224 -33 -37 0
-224 -33 -38 0
-224 -33 -39 0
-224 -33 -40 0
-224 42 0
-224 48 0
-225 11 0
-225 -2 -7 0
-225 -13 -18 0
-225 -13 -19 0
-225 -13 -20 0
-225 -13 -21 0
-225 -23 -28 0
-225 -23 -29 0
-225 -23 -30 0
-225 -23 -31 0
-225 -24 -28 0
-225 -24 -29 0
-225 -24 -30 0
-225 -24 -31 0
-225 -33 -37 0
-225 -33 -38 0
-225 -33 -39 0
-225 -33 -40 0
-225 -34 -37 0
-225 -34 -38 0
-225 -34 -39 0
-225 -34 -40 0
-225 43 0
-225 48 0
-226 11 0
-226 -3 -7 0
-226 -14 -18 0
-226 -14 -19 0
-226 -14 -20 0
-226 -14 -21 0
-226 -24 -28 0
-226 -24 -29 0
-226 -24 -30 0
-226 -24 -31 0
-226 -25 -28 0
-226 -25 -29 0
-226 -25 -30 0
-226 -25 -31 0
-226 -33 -37 0
-226 -33 -38 0
-226 -33 -39 0
-226 -33 -40 0
-226 -34 -37 0
-226 -34 -38 0
-226 -34 -39 0
-226 -34 -40 0
-226 -35 -37 0
-226 -35 -38 0
-226 -35 -39 0
-226 -35 -40 0
-226 44 0
-226 48 0
-227 11 0
-227 -4 -7 0
-227 -15 -18 0
-227 -15 -19 0
-227 -15 -20 0
-227 -15 -21 0
-227 -25 -28 0
-227 -25 -29 0
-227 -25 -30 0
-227 -25 -31 0
-227 -26 -28 0
-227 -26 -29 0
-227 -26 -30 0
-227 -26 -31 0
-227 -34 -37 0
-227 -34 -38 0
-227 -34 -39 0
-227 -34 -40 0
-227 -35 -37 0
-227 -35 -38 0
-227 -35 -39 0
-227 -35 -40 0
-227 -36 -37 0
-227 -36 -38 0
-227 -36 -39 0
-227 -36 -40 0
-227 45 0
-227 48 0
-228 11 0
-228 -5 -7 0
-228 -16 -18 0
-228 -16 -19 0
-228 -16 -20 0
-228 -16 -21 0
-228 -26 -28 0
-228 -26 -29 0
-228 -26 -30 0
-228 -26 -31 0
-228 -27 -28 0
-228 -27 -29 0
-228 -27 -30 0
-228 -27 -31 0
-228 -35 -37 0
-228 -35 -38 0
-228 -35 -39 0
-228 -35 -40 0
-228 -36 -37 0
-228 -36 -38 0
-228 -36 -39 0
-228 -36 -40 0
-228 46 0
-228 48 0
-229 11 0
-229 -6 -7 0
-229 -17 -18 0
-229 -17 -19 0
-229 -17 -20 0
-229 -17 -21 0
-229 -27 -28 0
-229 -27 -29 0
-229 -27 -30 0
-229 -27 -31 0
-229 -36 -37 0
-229 -36 -38 0
-229 -36 -39 0
-229 -36 -40 0
-229 47 0
-229 48 0
-230 22 0
-230 -10 0
-230 -12 -7 -19 0
-230 -12 -8 -20 0
-230 -12 -9 -21 0
-230 -2 0
-230 -3 0
-230 -4 0
-230 -5 0
-230 -6 0
-230 -7 -23 -29 0
-230 -7 -23 -30 0
-230 -7 -23 -31 0
-230 -8 -23 -30 0
-230 -8 -23 -31 0
-230 -9 -23 -31 0
-230 -7 -33 -38 0
-230 -7 -33 -39 0
-230 -7 -33 -40 0
-230 -8 -33 -39 0
-230 -8 -33 -40 0
-230 -9 -33 -40 0
-230 53 0
-230 -7 60 0
-230 -8 61 0
-230 -9 62 0
-230 -52 0
-231 22 0
-231 -10 0
-231 -13 -7 -19 0
-231 -13 -8 -20 0
-231 -13 -9 -21 0
-231 -1 0
-231 -3 0
-231 -4 0
-231 -5 0
-231 -6 0
-231 -7 -23 -29 0
-231 -7 -23 -30 0
-231 -7 -23 -31 0
-231 -8 -23 -30 0
-231 -8 -23 -31 0
-231 -9 -23 -31 0
-231 -7 -24 -29 0
-231 -7 -24 -30 0
-231 -7 -24 -31 0
-231 -8 -24 -30 0
-231 -8 -24 -31 0
-231 -9 -24 -31 0
-231 -7 -33 -38 0
-231 -7 -33 -39 0
-231 -7 -33 -40 0
-231 -8 -33 -39 0
-231 -8 -33 -40 0
-231 -9 -33 -40 0
-231 -7 -34 -38 0
-231 -7 -34 -39 0
-231 -7 -34 -40 0
-231 -8 -34 -39 0
-231 -8 -34 -40 0
-231 -9 -34 -40 0
-231 54 0
-231 -7 60 0
-231 -8 61 0
-231 -9 62 0
-231 -52 0
-232 22 0
-232 -10 0
-232 -14 -7 -19 0
-232 -14 -8 -20 0
-232 -14 -9 -21 0
-232 -1 0
-232 -2 0
-232 -4 0
-232 -5 0
-232 -6 0
-232 -7 -24 -29 0
-232 -7 -24 -30 0
-232 -7 -24 -31 0
-232 -8 -24 -30 0
-232 -8 -24 -31 0
-232 -9 -24 -31 0
-232 -7 -25 -29 0
-232 -7 -25 -30 0
-232 -7 -25 -31 0
-232 -8 -25 -30 0
-232 -8 -25 -31 0
-232 -9 -25 -31 0
-232 -7 -33 -38 0
-232 -7 -33 -39 0
-232 -7 -33 -40 0
-232 -8 -33 -39 0
-232 -8 -33 -40 0
-232 -9 -33 -40 0
-232 -7 -34 -38 0
-232 -7 -34 -39 0
-232 -7 -34 -40 0
-232 -8 -34 -39 0
-232 -8 -34 -40 0
-232 -9 -34 -40 0
-232 -7 -35 -38 0
-232 -7 -35 -39 0
-232 -7 -35 -40 0
-232 -8 -35 -39 0
-232 -8 -35 -40 0
-232 -9 -35 -40 0
-232 55 0
-232 -7 60 0
-232 -8 61 0
-232 -9 62 0
-232 -52 0
-233 22 0
-233 -10 0
-233 -15 -7 -19 0
-233 -15 -8 -20 0
-233 -15 -9 -21 0
-233 -1 0
-233 -2 0
-233 -3 0
-233 -5 0
-233 -6 0
-233 -7 -25 -29 0
-233 -7 -25 -30 0
-233 -7 -25 -31 0
-233 -8 -25 -30 0
-233 -8 -25 -31 0
-233 -9 -25 -31 0
-233 -7 -26 -29 0
-233 -7 -26 -30 0
-233 -7 -26 -31 0
-233 -8 -26 -30 0
-233 -8 -26 -31 0
-233 -9 -26 -31 0
-233 -7 -34 -38 0
-233 -7 -34 -39 0
-233 -7 -34 -40 0
-233 -8 -34 -39 0
-233 -8 -34 -40 0
-233 -9 -34 -40 0
-233 -7 -35 -38 0
-233 -7 -35 -39 0
-233 -7 -35 -40 0
-233 -8 -35 -39 0
-233 -8 -35 -40 0
-233 -9 -35 -40 0
-233 -7 -36 -38 0
-233 -7 -36 -39 0
-233 -7 -36 -40 0
-233 -8 -36 -39 0
-233 -8 -36 -40 0
-233 -9 -36 -40 0
-233 56 0
-233 -7 60 0
-233 -8 61 0
-233 -9 62 0
-233 -52 0
-234 22 0
-234 -10 0
-234 -16 -7 -19 0
-234 -16 -8 -20 0
-234 -16 -9 -21 0
-234 -1 0
-234 -2 0
-234 -3 0
-234 -4 0
-234 -6 0
-234 -7 -26 -29 0
-234 -7 -26 -30 0
-234 -7 -26 -31 0
-234 -8 -26 -30 0
-234 -8 -26 -31 0
-234 -9 -26 -31 0
-234 -7 -27 -29 0
-234 -7 -27 -30 0
-234 -7 -27 -31 0
-234 -8 -27 -30 0
-234 -8 -27 -31 0
-234 -9 -27 -31 0
-234 -7 -35 -38 0
-234 -7 -35 -39 0
-234 -7 -35 -40 0
-234 -8 -35 -39 0
-234 -8 -35 -40 0
-234 -9 -35 -40 0
-234 -7 -36 -38 0
-234 -7 -36 -39 0
-234 -7 -36 -40 0
-234 -8 -36 -39 0
-234 -8 -36 -40 0
-234 -9 -36 -40 0
-234 57 0
-234 -7 60 0
-234 -8 61 0
-234 -9 62 0
-234 -52 0
-235 22 0
-235 -10 0
-235 -17 -7 -19 0
-235 -17 -8 -20 0
-235 -17 -9 -21 0
-235 -1 0
-235 -2 0
-235 -3 0
-235 -4 0
-235 -5 0
-235 -7 -27 -29 0
-235 -7 -27 -30 0
-235 -7 -27 -31 0
-235 -8 -27 -30 0
-235 -8 -27 -31 0
-235 -9 -27 -31 0
-235 -7 -36 -38 0
-235 -7 -36 -39 0
-235 -7 -36 -40 0
-235 -8 -36 -39 0
-235 -8 -36 -40 0
-235 -9 -36 -40 0
-235 58 0
-235 -7 60 0
-235 -8 61 0
-235 -9 62 0
-235 -52 0
-236 22 0
-236 -31 0
-236 -12 -28 -19 0
-236 -12 -29 -20 0
-236 -12 -30 -21 0
-236 -24 0
-236 -25 0
-236 -26 0
-236 -27 0
-236 -28 -1 -8 0
-236 -28 -1 -9 0
-236 -28 -1 -10 0
-236 -29 -1 -9 0
-236 -29 -1 -10 0
-236 -30 -1 -10 0
-236 -28 -33 -38 0
-236 -28 -33 -39 0
-236 -28 -33 -40 0
-236 -29 -33 -39 0
-236 -29 -33 -40 0
-236 -30 -33 -40 0
-236 53 0
-236 -28 60 0
-236 -29 61 0
-236 -30 62 0
-236 -73 0
-237 22 0
-237 -31 0
-237 -13 -28 -19 0
-237 -13 -29 -20 0
-237 -13 -30 -21 0
-237 -25 0
-237 -26 0
-237 -27 0
-237 -28 -2 -8 0
-237 -28 -2 -9 0
-237 -28 -2 -10 0
-237 -29 -2 -9 0
-237 -29 -2 -10 0
-237 -30 -2 -10 0
-237 -28 -33 -38 0
-237 -28 -33 -39 0
-237 -28 -33 -40 0
-237 -29 -33 -39 0
-237 -29 -33 -40 0
-237 -30 -33 -40 0
-237 -28 -34 -38 0
-237 -28 -34 -39 0
-237 -28 -34 -40 0
-237 -29 -34 -39 0
-237 -29 -34 -40 0
-237 -30 -34 -40 0
-237 54 0
-237 -28 60 0
-237 -29 61 0
-237 -30 62 0
-237 -73 0
-238 22 0
-238 -31 0
-238 -14 -28 -19 0
-238 -14 -29 -20 0
-238 -14 -30 -21 0
-238 -23 0
-238 -26 0
-238 -27 0
-238 -28 -3 -8 0
-238 -28 -3 -9 0
-238 -28 -3 -10 0
-238 -29 -3 -9 0
-238 -29 -3 -10 0
-238 -30 -3 -10 0
-238 -28 -33 -38 0
-238 -28 -33 -39 0
-238 -28 -33 -40 0
-238 -29 -33 -39 0
-238 -29 -33 -40 0
-238 -30 -33 -40 0
-238 -28 -34 -38 0
-238 -28 -34 -39 0
-238 -28 -34 -40 0
-238 -29 -34 -39 0
-238 -29 -34 -40 0
-238 -30 -34 -40 0
-238 -28 -35 -38 0
-238 -28 -35 -39 0
-238 -28 -35 -40 0
-238 -29 -35 -39 0
-238 -29 -35 -40 0
-238 -30 -35 -40 0
-238 55 0
-238 -28 60 0
-238 -29 61 0
-238 -30 62 0
-238 -73 0
-239 22 0
-239 -31 0
-239 -15 -28 -19 0
-239 -15 -29 -20 0
-239 -15 -30 -21 0
-239 -23 0
-239 -24 0
-239 -27 0
-239 -28 -4 -8 0
-239 -28 -4 -9 0
-239 -28 -4 -10 0
-239 -29 -4 -9 0
-239 -29 -4 -10 0
-239 -30 -4 -10 0
-239 -28 -34 -38 0
-239 -28 -34 -39 0
-239 -28 -34 -40 0
-239 -29 -34 -39 0
-239 -29 -34 -40 0
-239 -30 -34 -40 0
-239 -28 -35 -38 0
-239 -28 -35 -39 0
-239 -28 -35 -40 0
-239 -29 -35 -39 0
-239 -29 -35 -40 0
-239 -30 -35 -40 0
-239 -28 -36 -38 0
-239 -28 -36 -39 0
-239 -28 -36 -40 0
-239 -29 -36 -39 0
-239 -29 -36 -40 0
-239 -30 -36 -40 0
-239 56 0
-239 -28 60 0
-239 -29 61 0
-239 -30 62 0
-239 -73 0
-240 22 0
-240 -31 0
-240 -16 -28 -19 0
-240 -16 -29 -20 0
-240 -16 -30 -21 0
-240 -23 0
-240 -24 0
-240 -25 0
-240 -28 -5 -8 0
-240 -28 -5 -9 0
-240 -28 -5 -10 0
-240 -29 -5 -9 0
-240 -29 -5 -10 0
-240 -30 -5 -10 0
-240 -28 -35 -38 0
-240 -28 -35 -39 0
-240 -28 -35 -40 0
-240 -29 -35 -39 0
-240 -29 -35 -40 0
-240 -30 -35 -40 0
-240 -28 -36 -38 0
-240 -28 -36 -39 0
-240 -28 -36 -40 0
-240 -29 -36 -39 0
-240 -29 -36 -40 0
-240 -30 -36 -40 0
-240 57 0
-240 -28 60 0
-240 -29 61 0
-240 -30 62 0
-240 -73 0
-241 22 0
-241 -31 0
-241 -17 -28 -19 0
-241 -17 -29 -20 0
-241 -17 -30 -21 0
-241 -23 0
-241 -24 0
-241 -25 0
-241 -26 0
-241 -28 -6 -8 0
-241 -28 -6 -9 0
-241 -28 -6 -10 0
-241 -29 -6 -9 0
-241 -29 -6 -10 0
-241 -30 -6 -10 0
-241 -28 -36 -38 0
-241 -28 -36 -39 0
-241 -28 -36 -40 0
-241 -29 -36 -39 0
-241 -29 -36 -40 0
-241 -30 -36 -40 0
-241 58 0
-241 -28 60 0
-241 -29 61 0
-241 -30 62 0
-241 -73 0
-242 22 0
-242 -40 0
-242 -12 -37 -19 0
-242 -12 -38 -20 0
-242 -12 -39 -21 0
-242 -34 0
-242 -35 0
-242 -36 0
-242 -37 -1 -8 0
-242 -37 -1 -9 0
-242 -37 -1 -10 0
-242 -38 -1 -9 0
-242 -38 -1 -10 0
-242 -39 -1 -10 0
-242 -37 -23 -29 0
-242 -37 -23 -30 0
-242 -37 -23 -31 0
-242 -38 -23 -30 0
-242 -38 -23 -31 0
-242 -39 -23 -31 0
-242 53 0
-242 -37 60 0
-242 -38 61 0
-242 -39 62 0
-242 -82 0
-243 22 0
-243 -40 0
-243 -13 -37 -19 0
-243 -13 -38 -20 0
-243 -13 -39 -21 0
-243 -35 0
-243 -36 0
-243 -37 -2 -8 0
-243 -37 -2 -9 0
-243 -37 -2 -10 0
-243 -38 -2 -9 0
-243 -38 -2 -10 0
-243 -39 -2 -10 0
-243 -37 -23 -29 0
-243 -37 -23 -30 0
-243 -37 -23 -31 0
-243 -38 -23 -30 0
-243 -38 -23 -31 0
-243 -39 -23 -31 0
-243 -37 -24 -29 0
-243 -37 -24 -30 0
-243 -37 -24 -31 0
-243 -38 -24 -30 0
-243 -38 -24 -31 0
-243 -39 -24 -31 0
-243 54 0
-243 -37 60 0
-243 -38 61 0
-243 -39 62 0
-243 -82 0
-244 22 0
-244 -40 0
-244 -14 -37 -19 0
-244 -14 -38 -20 0
-244 -14 -39 -21 0
-244 -36 0
-244 -37 -3 -8 0
-244 -37 -3 -9 0
-244 -37 -3 -10 0
-244 -38 -3 -9 0
-244 -38 -3 -10 0
-244 -39 -3 -10 0
-244 -37 -24 -29 0
-244 -37 -24 -30 0
-244 -37 -24 -31 0
-244 -38 -24 -30 0
-244 -38 -24 -31 0
-244 -39 -24 -31 0
-244 -37 -25 -29 0
-244 -37 -25 -30 0
-244 -37 -25 -31 0
-244 -38 -25 -30 0
-244 -38 -25 -31 0
-244 -39 -25 -31 0
-244 55 0
-244 -37 60 0
-244 -38 61 0
-244 -39 62 0
-244 -82 0
-245 22 0
-245 -40 0
-245 -15 -37 -19 0
-245 -15 -38 -20 0
-245 -15 -39 -21 0
-245 -33 0
-245 -37 -4 -8 0
-245 -37 -4 -9 0
-245 -37 -4 -10 0
-245 -38 -4 -9 0
-245 -38 -4 -10 0
-245 -39 -4 -10 0
-245 -37 -25 -29 0
-245 -37 -25 -30 0
-245 -37 -25 -31 0
-245 -38 -25 -30 0
-245 -38 -25 -31 0
-245 -39 -25 -31 0
-245 -37 -26 -29 0
-245 -37 -26 -30 0
-245 -37 -26 -31 0
-245 -38 -26 -30 0
-245 -38 -26 -31 0
-245 -39 -26 -31 0
-245 56 0
-245 -37 60 0
-245 -38 61 0
-245 -39 62 0
-245 -82 0
-246 22 0
-246 -40 0
-246 -16 -37 -19 0
-246 -16 -38 -20 0
-246 -16 -39 -21 0
-246 -33 0
-246 -34 0
-246 -37 -5 -8 0
-246 -37 -5 -9 0
-246 -37 -5 -10 0
-246 -38 -5 -9 0
-246 -38 -5 -10 0
-246 -39 -5 -10 0
-246 -37 -26 -29 0
-246 -37 -26 -30 0
-246 -37 -26 -31 0
-246 -38 -26 -30 0
-246 -38 -26 -31 0
-246 -39 -26 -31 0
-246 -37 -27 -29 0
-246 -37 -27 -30 0
-246 -37 -27 -31 0
-246 -38 -27 -30 0
-246 -38 -27 -31 0
-246 -39 -27 -31 0
-246 57 0
-246 -37 60 0
-246 -38 61 0
-246 -39 62 0
-246 -82 0
-247 22 0
-247 -40 0
-247 -17 -37 -19 0
-247 -17 -38 -20 0
-247 -17 -39 -21 0
-247 -33 0
-247 -34 0
-247 -35 0
-247 -37 -6 -8 0
-247 -37 -6 -9 0
-247 -37 -6 -10 0
-247 -38 -6 -9 0
-247 -38 -6 -10 0
-247 -39 -6 -10 0
-247 -37 -27 -29 0
-247 -37 -27 -30 0
-247 -37 -27 -31 0
-247 -38 -27 -30 0
-247 -38 -27 -31 0
-247 -39 -27 -31 0
-247 58 0
-247 -37 60 0
-247 -38 61 0
-247 -39 62 0
-247 -82 0
-248 22 0
-248 -12 -18 0
-248 -1 -7 0
-248 -1 -8 0
-248 -1 -9 0
-248 -1 -10 0
-248 -23 -28 0
-248 -23 -29 0
-248 -23 -30 0
-248 -23 -31 0
-248 -33 -37 0
-248 -33 -38 0
-248 -33 -39 0
-248 -33 -40 0
-248 53 0
-248 59 0
-249 22 0
-249 -13 -18 0
-249 -2 -7 0
-249 -2 -8 0
-249 -2 -9 0
-249 -2 -10 0
-249 -23 -28 0
-249 -23 -29 0
-249 -23 -30 0
-249 -23 -31 0
-249 -24 -28 0
-249 -24 -29 0
-249 -24 -30 0
-249 -24 -31 0
-249 -33 -37 0
-249 -33 -38 0
-249 -33 -39 0
-249 -33 -40 0
-249 -34 -37 0
-249 -34 -38 0
-249 -34 -39 0
-249 -34 -40 0
-249 54 0
-249 59 0
-250 22 0
-250 -14 -18 0
-250 -3 -7 0
-250 -3 -8 0
-250 -3 -9 0
-250 -3 -10 0
-250 -24 -28 0
-250 -24 -29 0
-250 -24 -30 0
-250 -24 -31 0
-250 -25 -28 0
-250 -25 -29 0
-250 -25 -30 0
-250 -25 -31 0
-250 -33 -37 0
-250 -33 -38 0
-250 -33 -39 0
-250 -33 -40 0
-250 -34 -37 0
-250 -34 -38 0
-250 -34 -39 0
-250 -34 -40 0
-250 -35 -37 0
-250 -35 -38 0
-250 -35 -39 0
-250 -35 -40 0
-250 55 0
-250 59 0
-251 22 0
-251 -15 -18 0
-251 -4 -7 0
-251 -4 -8 0
-251 -4 -9 0
-251 -4 -10 0
-251 -25 -28 0
-251 -25 -29 0
-251 -25 -30 0
-251 -25 -31 0
-251 -26 -28 0
-251 -26 -29 0
-251 -26 -30 0
-251 -26 -31 0
-251 -34 -37 0
-251 -34 -38 0
-251 -34 -39 0
-251 -34 -40 0
-251 -35 -37 0
-251 -35 -38 0
-251 -35 -39 0
-251 -35 -40 0
-251 -36 -37 0
-251 -36 -38 0
-251 -36 -39 0
-251 -36 -40 0
-251 56 0
-251 59 0
-252 22 0
-252 -16 -18 0
-252 -5 -7 0
-252 -5 -8 0
-252 -5 -9 0
-252 -5 -10 0
-252 -26 -28 0
-252 -26 -29 0
-252 -26 -30 0
-252 -26 -31 0
-252 -27 -28 0
-252 -27 -29 0
-252 -27 -30 0
-252 -27 -31 0
-252 -35 -37 0
-252 -35 -38 0
-252 -35 -39 0
-252 -35 -40 0
-252 -36 -37 0
-252 -36 -38 0
-252 -36 -39 0
-252 -36 -40 0
-252 57 0
-252 59 0
-253 22 0
-253 -17 -18 0
-253 -6 -7 0
-253 -6 -8 0
-253 -6 -9 0
-253 -6 -10 0
-253 -27 -28 0
-253 -27 -29 0
-253 -27 -30 0
-253 -27 -31 0
-253 -36 -37 0
-253 -36 -38 0
-253 -36 -39 0
-253 -36 -40 0
-253 58 0
-253 59 0
-254 32 0
-254 -10 0
-254 -23 -7 -29 0
-254 -23 -8 -30 0
-254 -23 -9 -31 0
-254 -3 0
-254 -4 0
-254 -5 0
-254 -6 0
-254 -7 -12 -19 0
-254 -7 -12 -20 0
-254 -7 -12 -21 0
-254 -8 -12 -20 0
-254 -8 -12 -21 0
-254 -9 -12 -21 0
-254 -7 -13 -19 0
-254 -7 -13 -20 0
-254 -7 -13 -21 0
-254 -8 -13 -20 0
-254 -8 -13 -21 0
-254 -9 -13 -21 0
-254 -7 -33 -38 0
-254 -7 -33 -39 0
-254 -7 -33 -40 0
-254 -8 -33 -39 0
-254 -8 -33 -40 0
-254 -9 -33 -40 0
-254 -7 -34 -38 0
-254 -7 -34 -39 0
-254 -7 -34 -40 0
-254 -8 -34 -39 0
-254 -8 -34 -40 0
-254 -9 -34 -40 0
-254 64 0
-254 -7 70 0
-254 -8 71 0
-254 -9 72 0
-254 -52 0
-255 32 0
-255 -10 0
-255 -24 -7 -29 0
-255 -24 -8 -30 0
-255 -24 -9 -31 0
-255 -1 0
-255 -4 0
-255 -5 0
-255 -6 0
-255 -7 -13 -19 0
-255 -7 -13 -20 0
-255 -7 -13 -21 0
-255 -8 -13 -20 0
-255 -8 -13 -21 0
-255 -9 -13 -21 0
-255 -7 -14 -19 0
-255 -7 -14 -20 0
-255 -7 -14 -21 0
-255 -8 -14 -20 0
-255 -8 -14 -21 0
-255 -9 -14 -21 0
-255 -7 -33 -38 0
-255 -7 -33 -39 0
-255 -7 -33 -40 0
-255 -8 -33 -39 0
-255 -8 -33 -40 0
-255 -9 -33 -40 0
-255 -7 -34 -38 0
-255 -7 -34 -39 0
-255 -7 -34 -40 0
-255 -8 -34 -39 0
-255 -8 -34 -40 0
-255 -9 -34 -40 0
-255 -7 -35 -38 0
-255 -7 -35 -39 0
-255 -7 -35 -40 0
-255 -8 -35 -39 0
-255 -8 -35 -40 0
-255 -9 -35 -40 0
-255 65 0
-255 -7 70 0
-255 -8 71 0
-255 -9 72 0
-255 -52 0
-256 32 0
-256 -10 0
-256 -25 -7 -29 0
-256 -25 -8 -30 0
-256 -25 -9 -31 0
-256 -1 0
-256 -2 0
-256 -5 0
-256 -6 0
-256 -7 -14 -19 0
-256 -7 -14 -20 0
-256 -7 -14 -21 0
-256 -8 -14 -20 0
-256 -8 -14 -21 0
-256 -9 -14 -21 0
-256 -7 -15 -19 0
-256 -7 -15 -20 0
-256 -7 -15 -21 0
-256 -8 -15 -20 0
-256 -8 -15 -21 0
-256 -9 -15 -21 0
-256 -7 -33 -38 0
-256 -7 -33 -39 0
-256 -7 -33 -40 0
-256 -8 -33 -39 0
-256 -8 -33 -40 0
-256 -9 -33 -40 0
-256 -7 -34 -38 0
-256 -7 -34 -39 0
-256 -7 -34 -40 0
-256 -8 -34 -39 0
-256 -8 -34 -40 0
-256 -9 -34 -40 0
-256 -7 -35 -38 0
-256 -7 -35 -39 0
-256 -7 -35 -40 0
-256 -8 -35 -39 0
-256 -8 -35 -40 0
-256 -9 -35 -40 0
-256 -7 -36 -38 0
-256 -7 -36 -39 0
-256 -7 -36 -40 0
-256 -8 -36 -39 0
-256 -8 -36 -40 0
-256 -9 -36 -40 0
-256 66 0
-256 -7 70 0
-256 -8 71 0
-256 -9 72 0
-256 -52 0
-257 32 0
-257 -10 0
-257 -26 -7 -29 0
-257 -26 -8 -30 0
-257 -26 -9 -31 0
-257 -1 0
-257 -2 0
-257 -3 0
-257 -6 0
-257 -7 -15 -19 0
-257 -7 -15 -20 0
-257 -7 -15 -21 0
-257 -8 -15 -20 0
-257 -8 -15 -21 0
-257 -9 -15 -21 0
-257 -7 -16 -19 0
-257 -7 -16 -20 0
-257 -7 -16 -21 0
-257 -8 -16 -20 0
-257 -8 -16 -21 0
-257 -9 -16 -21 0
-257 -7 -34 -38 0
-257 -7 -34 -39 0
-257 -7 -34 -40 0
-257 -8 -34 -39 0
-257 -8 -34 -40 0
-257 -9 -34 -40 0
-257 -7 -35 -38 0
-257 -7 -35 -39 0
-257 -7 -35 -40 0
-257 -8 -35 -39 0
-257 -8 -35 -40 0
-257 -9 -35 -40 0
-257 -7 -36 -38 0
-257 -7 -36 -39 0
-257 -7 -36 -40 0
-257 -8 -36 -39 0
-257 -8 -36 -40 0
-257 -9 -36 -40 0
-257 67 0
-257 -7 70 0
-257 -8 71 0
-257 -9 72 0
-257 -52 0
-258 32 0
-258 -10 0
-258 -27 -7 -29 0
-258 -27 -8 -30 0
-258 -27 -9 -31 0
-258 -1 0
-258 -2 0
-258 -3 0
-258 -4 0
-258 -7 -16 -19 0
-258 -7 -16 -20 0
-258 -7 -16 -21 0
-258 -8 -16 -20 0
-258 -8 -16 -21 0
-258 -9 -16 -21 0
-258 -7 -17 -19 0
-258 -7 -17 -20 0
-258 -7 -17 -21 0
-258 -8 -17 -20 0
-258 -8 -17 -21 0
-258 -9 -17 -21 0
-258 -7 -35 -38 0
-258 -7 -35 -39 0
-258 -7 -35 -40 0
-258 -8 -35 -39 0
-258 -8 -35 -40 0
-258 -9 -35 -40 0
-258 -7 -36 -38 0
-258 -7 -36 -39 0
-258 -7 -36 -40 0
-258 -8 -36 -39 0
-258 -8 -36 -40 0
-258 -9 -36 -40 0
-258 68 0
-258 -7 70 0
-258 -8 71 0
-258 -9 72 0
-258 -52 0
-259 32 0
-259 -21 0
-259 -23 -18 -29 0
-259 -23 -19 -30 0
-259 -23 -20 -31 0
-259 -14 0
-259 -15 0
-259 -16 0
-259 -17 0
-259 -18 -1 -8 0
-259 -18 -1 -9 0
-259 -18 -1 -10 0
-259 -19 -1 -9 0
-259 -19 -1 -10 0
-259 -20 -1 -10 0
-259 -18 -2 -8 0
-259 -18 -2 -9 0
-259 -18 -2 -10 0
-259 -19 -2 -9 0
-259 -19 -2 -10 0
-259 -20 -2 -10 0
-259 -18 -33 -38 0
-259 -18 -33 -39 0
-259 -18 -33 -40 0
-259 -19 -33 -39 0
-259 -19 -33 -40 0
-259 -20 -33 -40 0
-259 -18 -34 -38 0
-259 -18 -34 -39 0
-259 -18 -34 -40 0
-259 -19 -34 -39 0
-259 -19 -34 -40 0
-259 -20 -34 -40 0
-259 64 0
-259 -18 70 0
-259 -19 71 0
-259 -20 72 0
-259 -63 0
-260 32 0
-260 -21 0
-260 -24 -18 -29 0
-260 -24 -19 -30 0
-260 -24 -20 -31 0
-260 -12 0
-260 -15 0
-260 -16 0
-260 -17 0
-260 -18 -2 -8 0
-260 -18 -2 -9 0
-260 -18 -2 -10 0
-260 -19 -2 -9 0
-260 -19 -2 -10 0
-260 -20 -2 -10 0
-260 -18 -3 -8 0
-260 -18 -3 -9 0
-260 -18 -3 -10 0
-260 -19 -3 -9 0
-260 -19 -3 -10 0
-260 -20 -3 -10 0
-260 -18 -33 -38 0
-260 -18 -33 -39 0
-260 -18 -33 -40 0
-260 -19 -33 -39 0
-260 -19 -33 -40 0
-260 -20 -33 -40 0
-260 -18 -34 -38 0
-260 -18 -34 -39 0
-260 -18 -34 -40 0
-260 -19 -34 -39 0
-260 -19 -34 -40 0
-260 -20 -34 -40 0
-260 -18 -35 -38 0
-260 -18 -35 -39 0
-260 -18 -35 -40 0
-260 -19 -35 -39 0
-260 -19 -35 -40 0
-260 -20 -35 -40 0
-260 65 0
-260 -18 70 0
-260 -19 71 0
-260 -20 72 0
-260 -63 0
-261 32 0
-261 -21 0
-261 -25 -18 -29 0
-261 -25 -19 -30 0
-261 -25 -20 -31 0
-261 -12 0
-261 -13 0
-261 -16 0
-261 -17 0
-261 -18 -3 -8 0
-261 -18 -3 -9 0
-261 -18 -3 -10 0
-261 -19 -3 -9 0
-261 -19 -3 -10 0
-261 -20 -3 -10 0
-261 -18 -4 -8 0
-261 -18 -4 -9 0
-261 -18 -4 -10 0
-261 -19 -4 -9 0
-261 -19 -4 -10 0
-261 -20 -4 -10 0
-261 -18 -33 -38 0
-261 -18 -33 -39 0
-261 -18 -33 -40 0
-261 -19 -33 -39 0
-261 -19 -33 -40 0
-261 -20 -33 -40 0
-261 -18 -34 -38 0
-261 -18 -34 -39 0
-261 -18 -34 -40 0
-261 -19 -34 -39 0
-261 -19 -34 -40 0
-261 -20 -34 -40 0
-261 -18 -35 -38 0
-261 -18 -35 -39 0
-261 -18 -35 -40 0
-261 -19 -35 -39 0
-261 -19 -35 -40 0
-261 -20 -35 -40 0
-261 -18 -36 -38 0
-261 -18 -36 -39 0
-261 -18 -36 -40 0
-261 -19 -36 -39 0
-261 -19 -36 -40 0
-261 -20 -36 -40 0
-261 66 0
-261 -18 70 0
-261 -19 71 0
-261 -20 72 0
-261 -63 0
-262 32 0
-262 -21 0
-262 -26 -18 -29 0
-262 -26 -19 -30 0
-262 -26 -20 -31 0
-262 -12 0
-262 -13 0
-262 -14 0
-262 -17 0
-262 -18 -4 -8 0
-262 -18 -4 -9 0
-262 -18 -4 -10 0
-262 -19 -4 -9 0
-262 -19 -4 -10 0
-262 -20 -4 -10 0
-262 -18 -5 -8 0
-262 -18 -5 -9 0
-262 -18 -5 -10 0
-262 -19 -5 -9 0
-262 -19 -5 -10 0
-262 -20 -5 -10 0
-262 -18 -34 -38 0
-262 -18 -34 -39 0
-262 -18 -34 -40 0
-262 -19 -34 -39 0
-262 -19 -34 -40 0
-262 -20 -34 -40 0
-262 -18 -35 -38 0
-262 -18 -35 -39 0
-262 -18 -35 -40 0
-262 -19 -35 -39 0
-262 -19 -35 -40 0
-262 -20 -35 -40 0
-262 -18 -36 -38 0
-262 -18 -36 -39 0
-262 -18 -36 -40 0
-262 -19 -36 -39 0
-262 -19 -36 -40 0
-262 -20 -36 -40 0
-262 67 0
-262 -18 70 0
-262 -19 71 0
-262 -20 72 0
-262 -63 0
-263 32 0
-263 -21 0
-263 -27 -18 -29 0
-263 -27 -19 -30 0
-263 -27 -20 -31 0
-263 -12 0
-263 -13 0
-263 -14 0
-263 -15 0
-263 -18 -5 -8 0
-263 -18 -5 -9 0
-263 -18 -5 -10 0
-263 -19 -5 -9 0
-263 -19 -5 -10 0
-263 -20 -5 -10 0
-263 -18 -6 -8 0
-263 -18 -6 -9 0
-263 -18 -6 -10 0
-263 -19 -6 -9 0
-263 -19 -6 -10 0
-263 -20 -6 -10 0
-263 -18 -35 -38 0
-263 -18 -35 -39 0
-263 -18 -35 -40 0
-263 -19 -35 -39 0
-263 -19 -35 -40 0
-263 -20 -35 -40 0
-263 -18 -36 -38 0
-263 -18 -36 -39 0
-263 -18 -36 -40 0
-263 -19 -36 -39 0
-263 -19 -36 -40 0
-263 -20 -36 -40 0
-263 68 0
-263 -18 70 0
-263 -19 71 0
-263 -20 72 0
-263 -63 0
-264 32 0
-264 -40 0
-264 -23 -37 -29 0
-264 -23 -38 -30 0
-264 -23 -39 -31 0
-264 -35 0
-264 -36 0
-264 -37 -1 -8 0
-264 -37 -1 -9 0
-264 -37 -1 -10 0
-264 -38 -1 -9 0
-264 -38 -1 -10 0
-264 -39 -1 -10 0
-264 -37 -2 -8 0
-264 -37 -2 -9 0
-264 -37 -2 -10 0
-264 -38 -2 -9 0
-264 -38 -2 -10 0
-264 -39 -2 -10 0
-264 -37 -12 -19 0
-264 -37 -12 -20 0
-264 -37 -12 -21 0
-264 -38 -12 -20 0
-264 -38 -12 -21 0
-264 -39 -12 -21 0
-264 -37 -13 -19 0
-264 -37 -13 -20 0
-264 -37 -13 -21 0
-264 -38 -13 -20 0
-264 -38 -13 -21 0
-264 -39 -13 -21 0
-264 64 0
-264 -37 70 0
-264 -38 71 0
-264 -39 72 0
-264 -82 0
-265 32 0
-265 -40 0
-265 -24 -37 -29 0
-265 -24 -38 -30 0
-265 -24 -39 -31 0
-265 -36 0
-265 -37 -2 -8 0
-265 -37 -2 -9 0
-265 -37 -2 -10 0
-265 -38 -2 -9 0
-265 -38 -2 -10 0
-265 -39 -2 -10 0
-265 -37 -3 -8 0
-265 -37 -3 -9 0
-265 -37 -3 -10 0
-265 -38 -3 -9 0
-265 -38 -3 -10 0
-265 -39 -3 -10 0
-265 -37 -13 -19 0
-265 -37 -13 -20 0
-265 -37 -13 -21 0
-265 -38 -13 -20 0
-265 -38 -13 -21 0
-265 -39 -13 -21 0
-265 -37 -14 -19 0
-265 -37 -14 -20 0
-265 -37 -14 -21 0
-265 -38 -14 -20 0
-265 -38 -14 -21 0
-265 -39 -14 -21 0
-265 65 0
-265 -37 70 0
-265 -38 71 0
-265 -39 72 0
-265 -82 0
-266 32 0
-266 -40 0
-266 -25 -37 -29 0
-266 -25 -38 -30 0
-266 -25 -39 -31 0
-266 -37 -3 -8 0
-266 -37 -3 -9 0
-266 -37 -3 -10 0
-266 -38 -3 -9 0
-266 -38 -3 -10 0
-266 -39 -3 -10 0
-266 -37 -4 -8 0
-266 -37 -4 -9 0
-266 -37 -4 -10 0
-266 -38 -4 -9 0
-266 -38 -4 -10 0
-266 -39 -4 -10 0
-266 -37 -14 -19 0
-266 -37 -14 -20 0
-266 -37 -14 -21 0
-266 -38 -14 -20 0
-266 -38 -14 -21 0
-266 -39 -14 -21 0
-266 -37 -15 -19 0
-266 -37 -15 -20 0
-266 -37 -15 -21 0
-266 -38 -15 -20 0
-266 -38 -15 -21 0
-266 -39 -15 -21 0
-266 66 0
-266 -37 70 0
-266 -38 71 0
-266 -39 72 0
-266 -82 0
-267 32 0
-267 -40 0
-267 -26 -37 -29 0
-267 -26 -38 -30 0
-267 -26 -39 -31 0
-267 -33 0
-267 -37 -4 -8 0
-267 -37 -4 -9 0
-267 -37 -4 -10 0
-267 -38 -4 -9 0
-267 -38 -4 -10 0
-267 -39 -4 -10 0
-267 -37 -5 -8 0
-267 -37 -5 -9 0
-267 -37 -5 -10 0
-267 -38 -5 -9 0
-267 -38 -5 -10 0
-267 -39 -5 -10 0
-267 -37 -15 -19 0
-267 -37 -15 -20 0
-267 -37 -15 -21 0
-267 -38 -15 -20 0
-267 -38 -15 -21 0
-267 -39 -15 -21 0
-267 -37 -16 -19 0
-267 -37 -16 -20 0
-267 -37 -16 -21 0
-267 -38 -16 -20 0
-267 -38 -16 -21 0
-267 -39 -16 -21 0
-267 67 0
-267 -37 70 0
-267 -38 71 0
-267 -39 72 0
-267 -82 0
-268 32 0
-268 -40 0
-268 -27 -37 -29 0
-268 -27 -38 -30 0
-268 -27 -39 -31 0
-268 -33 0
-268 -34 0
-268 -37 -5 -8 0
-268 -37 -5 -9 0
-268 -37 -5 -10 0
-268 -38 -5 -9 0
-268 -38 -5 -10 0
-268 -39 -5 -10 0
-268 -37 -6 -8 0
-268 -37 -6 -9 0
-268 -37 -6 -10 0
-268 -38 -6 -9 0
-268 -38 -6 -10 0
-268 -39 -6 -10 0
-268 -37 -16 -19 0
-268 -37 -16 -20 0
-268 -37 -16 -21 0
-268 -38 -16 -20 0
-268 -38 -16 -21 0
-268 -39 -16 -21 0
-268 -37 -17 -19 0
-268 -37 -17 -20 0
-268 -37 -17 -21 0
-268 -38 -17 -20 0
-268 -38 -17 -21 0
-268 -39 -17 -21 0
-268 68 0
-268 -37 70 0
-268 -38 71 0
-268 -39 72 0
-268 -82 0
-269 32 0
-269 -23 -28 0
-269 -1 -7 0
-269 -1 -8 0
-269 -1 -9 0
-269 -1 -10 0
-269 -2 -7 0
-269 -2 -8 0
-269 -2 -9 0
-269 -2 -10 0
-269 -12 -18 0
-269 -12 -19 0
-269 -12 -20 0
-269 -12 -21 0
-269 -13 -18 0
-269 -13 -19 0
-269 -13 -20 0
-269 -13 -21 0
-269 -33 -37 0
-269 -33 -38 0
-269 -33 -39 0
-269 -33 -40 0
-269 -34 -37 0
-269 -34 -38 0
-269 -34 -39 0
-269 -34 -40 0
-269 64 0
-269 69 0
-270 32 0
-270 -24 -28 0
-270 -2 -7 0
-270 -2 -8 0
-270 -2 -9 0
-270 -2 -10 0
-270 -3 -7 0
-270 -3 -8 0
-270 -3 -9 0
-270 -3 -10 0
-270 -13 -18 0
-270 -13 -19 0
-270 -13 -20 0
-270 -13 -21 0
-270 -14 -18 0
-270 -14 -19 0
-270 -14 -20 0
-270 -14 -21 0
-270 -33 -37 0
-270 -33 -38 0
-270 -33 -39 0
-270 -33 -40 0
-270 -34 -37 0
-270 -34 -38 0
-270 -34 -39 0
-270 -34 -40 0
-270 -35 -37 0
-270 -35 -38 0
-270 -35 -39 0
-270 -35 -40 0
-270 65 0
-270 69 0
-271 32 0
-271 -25 -28 0
-271 -3 -7 0
-271 -3 -8 0
-271 -3 -9 0
-271 -3 -10 0
-271 -4 -7 0
-271 -4 -8 0
-271 -4 -9 0
-271 -4 -10 0
-271 -14 -18 0
-271 -14 -19 0
-271 -14 -20 0
-271 -14 -21 0
-271 -15 -18 0
-271 -15 -19 0
-271 -15 -20 0
-271 -15 -21 0
-271 -33 -37 0
-271 -33 -38 0
-271 -33 -39 0
-271 -33 -40 0
-271 -34 -37 0
-271 -34 -38 0
-271 -34 -39 0
-271 -34 -40 0
-271 -35 -37 0
-271 -35 -38 0
-271 -35 -39 0
-271 -35 -40 0
-271 -36 -37 0
-271 -36 -38 0
-271 -36 -39 0
-271 -36 -40 0
-271 66 0
-271 69 0
-272 32 0
-272 -26 -28 0
-272 -4 -7 0
-272 -4 -8 0
-272 -4 -9 0
-272 -4 -10 0
-272 -5 -7 0
-272 -5 -8 0
-272 -5 -9 0
-272 -5 -10 0
-272 -15 -18 0
-272 -15 -19 0
-272 -15 -20 0
-272 -15 -21 0
-272 -16 -18 0
-272 -16 -19 0
-272 -16 -20 0
-272 -16 -21 0
-272 -34 -37 0
-272 -34 -38 0
-272 -34 -39 0
-272 -34 -40 0
-272 -35 -37 0
-272 -35 -38 0
-272 -35 -39 0
-272 -35 -40 0
-272 -36 -37 0
-272 -36 -38 0
-272 -36 -39 0
-272 -36 -40 0
-272 67 0
-272 69 0
-273 32 0
-273 -27 -28 0
-273 -5 -7 0
-273 -5 -8 0
-273 -5 -9 0
-273 -5 -10 0
-273 -6 -7 0
-273 -6 -8 0
-273 -6 -9 0
-273 -6 -10 0
-273 -16 -18 0
-273 -16 -19 0
-273 -16 -20 0
-273 -16 -21 0
-273 -17 -18 0
-273 -17 -19 0
-273 -17 -20 0
-273 -17 -21 0
-273 -35 -37 0
-273 -35 -38 0
-273 -35 -39 0
-273 -35 -40 0
-273 -36 -37 0
-273 -36 -38 0
-273 -36 -39 0
-273 -36 -40 0
-273 68 0
-273 69 0
-274 41 0
-274 -10 0
-274 -33 -7 -38 0
-274 -33 -8 -39 0
-274 -33 -9 -40 0
-274 -4 0
-274 -5 0
-274 -6 0
-274 -7 -12 -19 0
-274 -7 -12 -20 0
-274 -7 -12 -21 0
-274 -8 -12 -20 0
-274 -8 -12 -21 0
-274 -9 -12 -21 0
-274 -7 -13 -19 0
-274 -7 -13 -20 0
-274 -7 -13 -21 0
-274 -8 -13 -20 0
-274 -8 -13 -21 0
-274 -9 -13 -21 0
-274 -7 -14 -19 0
-274 -7 -14 -20 0
-274 -7 -14 -21 0
-274 -8 -14 -20 0
-274 -8 -14 -21 0
-274 -9 -14 -21 0
-274 -7 -23 -29 0
-274 -7 -23 -30 0
-274 -7 -23 -31 0
-274 -8 -23 -30 0
-274 -8 -23 -31 0
-274 -9 -23 -31 0
-274 -7 -24 -29 0
-274 -7 -24 -30 0
-274 -7 -24 -31 0
-274 -8 -24 -30 0
-274 -8 -24 -31 0
-274 -9 -24 -31 0
-274 -7 -25 -29 0
-274 -7 -25 -30 0
-274 -7 -25 -31 0
-274 -8 -25 -30 0
-274 -8 -25 -31 0
-274 -9 -25 -31 0
-274 74 0
-274 -7 79 0
-274 -8 80 0
-274 -9 81 0
-274 -52 0
-275 41 0
-275 -10 0
-275 -34 -7 -38 0
-275 -34 -8 -39 0
-275 -34 -9 -40 0
-275 -1 0
-275 -5 0
-275 -6 0
-275 -7 -13 -19 0
-275 -7 -13 -20 0
-275 -7 -13 -21 0
-275 -8 -13 -20 0
-275 -8 -13 -21 0
-275 -9 -13 -21 0
-275 -7 -14 -19 0
-275 -7 -14 -20 0
-275 -7 -14 -21 0
-275 -8 -14 -20 0
-275 -8 -14 -21 0
-275 -9 -14 -21 0
-275 -7 -15 -19 0
-275 -7 -15 -20 0
-275 -7 -15 -21 0
-275 -8 -15 -20 0
-275 -8 -15 -21 0
-275 -9 -15 -21 0
-275 -7 -23 -29 0
-275 -7 -23 -30 0
-275 -7 -23 -31 0
-275 -8 -23 -30 0
-275 -8 -23 -31 0
-275 -9 -23 -31 0
-275 -7 -24 -29 0
-275 -7 -24 -30 0
-275 -7 -24 -31 0
-275 -8 -24 -30 0
-275 -8 -24 -31 0
-275 -9 -24 -31 0
-275 -7 -25 -29 0
-275 -7 -25 -30 0
-275 -7 -25 -31 0
-275 -8 -25 -30 0
-275 -8 -25 -31 0
-275 -9 -25 -31 0
-275 -7 -26 -29 0
-275 -7 -26 -30 0
-275 -7 -26 -31 0
-275 -8 -26 -30 0
-275 -8 -26 -31 0
-275 -9 -26 -31 0
-275 75 0
-275 -7 79 0
-275 -8 80 0
-275 -9 81 0
-275 -52 0
-276 41 0
-276 -10 0
-276 -35 -7 -38 0
-276 -35 -8 -39 0
-276 -35 -9 -40 0
-276 -1 0
-276 -2 0
-276 -6 0
-276 -7 -14 -19 0
-276 -7 -14 -20 0
-276 -7 -14 -21 0
-276 -8 -14 -20 0
-276 -8 -14 -21 0
-276 -9 -14 -21 0
-276 -7 -15 -19 0
-276 -7 -15 -20 0
-276 -7 -15 -21 0
-276 -8 -15 -20 0
-276 -8 -15 -21 0
-276 -9 -15 -21 0
-276 -7 -16 -19 0
-276 -7 -16 -20 0
-276 -7 -16 -21 0
-276 -8 -16 -20 0
-276 -8 -16 -21 0
-276 -9 -16 -21 0
-276 -7 -24 -29 0
-276 -7 -24 -30 0
-276 -7 -24 -31 0
-276 -8 -24 -30 0
-276 -8 -24 -31 0
-276 -9 -24 -31 0
-276 -7 -25 -29 0
-276 -7 -25 -30 0
-276 -7 -25 -31 0
-276 -8 -25 -30 0
-276 -8 -25 -31 0
-276 -9 -25 -31 0
-276 -7 -26 -29 0
-276 -7 -26 -30 0
-276 -7 -26 -31 0
-276 -8 -26 -30 0
-276 -8 -26 -31 0
-276 -9 -26 -31 0
-276 -7 -27 -29 0
-276 -7 -27 -30 0
-276 -7 -27 -31 0
-276 -8 -27 -30 0
-276 -8 -27 -31 0
-276 -9 -27 -31 0
-276 76 0
-276 -7 79 0
-276 -8 80 0
-276 -9 81 0
-276 -52 0
-277 41 0
-277 -10 0
-277 -36 -7 -38 0
-277 -36 -8 -39 0
-277 -36 -9 -40 0
-277 -1 0
-277 -2 0
-277 -3 0
-277 -7 -15 -19 0
-277 -7 -15 -20 0
-277 -7 -15 -21 0
-277 -8 -15 -20 0
-277 -8 -15 -21 0
-277 -9 -15 -21 0
-277 -7 -16 -19 0
-277 -7 -16 -20 0
-277 -7 -16 -21 0
-277 -8 -16 -20 0
-277 -8 -16 -21 0
-277 -9 -16 -21 0
-277 -7 -17 -19 0
-277 -7 -17 -20 0
-277 -7 -17 -21 0
-277 -8 -17 -20 0
-277 -8 -17 -21 0
-277 -9 -17 -21 0
-277 -7 -25 -29 0
-277 -7 -25 -30 0
-277 -7 -25 -31 0
-277 -8 -25 -30 0
-277 -8 -25 -31 0
-277 -9 -25 -31 0
-277 -7 -26 -29 0
-277 -7 -26 -30 0
-277 -7 -26 -31 0
-277 -8 -26 -30 0
-277 -8 -26 -31 0
-277 -9 -26 -31 0
-277 -7 -27 -29 0
-277 -7 -27 -30 0
-277 -7 -27 -31 0
-277 -8 -27 -30 0
-277 -8 -27 -31 0
-277 -9 -27 -31 0
-277 77 0
-277 -7 79 0
-277 -8 80 0
-277 -9 81 0
-277 -52 0
-278 41 0
-278 -21 0
-278 -33 -18 -38 0
-278 -33 -19 -39 0
-278 -33 -20 -40 0
-278 -15 0
-278 -16 0
-278 -17 0
-278 -18 -1 -8 0
-278 -18 -1 -9 0
-278 -18 -1 -10 0
-278 -19 -1 -9 0
-278 -19 -1 -10 0
-278 -20 -1 -10 0
-278 -18 -2 -8 0
-278 -18 -2 -9 0
-278 -18 -2 -10 0
-278 -19 -2 -9 0
-278 -19 -2 -10 0
-278 -20 -2 -10 0
-278 -18 -3 -8 0
-278 -18 -3 -9 0
-278 -18 -3 -10 0
-278 -19 -3 -9 0
-278 -19 -3 -10 0
-278 -20 -3 -10 0
-278 -18 -23 -29 0
-278 -18 -23 -30 0
-278 -18 -23 -31 0
-278 -19 -23 -30 0
-278 -19 -23 -31 0
-278 -20 -23 -31 0
-278 -18 -24 -29 0
-278 -18 -24 -30 0
-278 -18 -24 -31 0
-278 -19 -24 -30 0
-278 -19 -24 -31 0
-278 -20 -24 -31 0
-278 -18 -25 -29 0
-278 -18 -25 -30 0
-278 -18 -25 -31 0
-278 -19 -25 -30 0
-278 -19 -25 -31 0
-278 -20 -25 -31 0
-278 74 0
-278 -18 79 0
-278 -19 80 0
-278 -20 81 0
-278 -63 0
-279 41 0
-279 -21 0
-279 -34 -18 -38 0
-279 -34 -19 -39 0
-279 -34 -20 -40 0
-279 -12 0
-279 -16 0
-279 -17 0
-279 -18 -2 -8 0
-279 -18 -2 -9 0
-279 -18 -2 -10 0
-279 -19 -2 -9 0
-279 -19 -2 -10 0
-279 -20 -2 -10 0
-279 -18 -3 -8 0
-279 -18 -3 -9 0
-279 -18 -3 -10 0
-279 -19 -3 -9 0
-279 -19 -3 -10 0
-279 -20 -3 -10 0
-279 -18 -4 -8 0
-279 -18 -4 -9 0
-279 -18 -4 -10 0
-279 -19 -4 -9 0
-279 -19 -4 -10 0
-279 -20 -4 -10 0
-279 -18 -23 -29 0
-279 -18 -23 -30 0
-279 -18 -23 -31 0
-279 -19 -23 -30 0
-279 -19 -23 -31 0
-279 -20 -23 -31 0
-279 -18 -24 -29 0
-279 -18 -24 -30 0
-279 -18 -24 -31 0
-279 -19 -24 -30 0
-279 -19 -24 -31 0
-279 -20 -24 -31 0
-279 -18 -25 -29 0
-279 -18 -25 -30 0
-279 -18 -25 -31 0
-279 -19 -25 -30 0
-279 -19 -25 -31 0
-279 -20 -25 -31 0
-279 -18 -26 -29 0
-279 -18 -26 -30 0
-279 -18 -26 -31 0
-279 -19 -26 -30 0
-279 -19 -26 -31 0
-279 -20 -26 -31 0
-279 75 0
-279 -18 79 0
-279 -19 80 0
-279 -20 81 0
-279 -63 0
-280 41 0
-280 -21 0
-280 -35 -18 -38 0
-280 -35 -19 -39 0
-280 -35 -20 -40 0
-280 -12 0
-280 -13 0
-280 -17 0
-280 -18 -3 -8 0
-280 -18 -3 -9 0
-280 -18 -3 -10 0
-280 -19 -3 -9 0
-280 -19 -3 -10 0
-280 -20 -3 -10 0
-280 -18 -4 -8 0
-280 -18 -4 -9 0
-280 -18 -4 -10 0
-280 -19 -4 -9 0
-280 -19 -4 -10 0
-280 -20 -4 -10 0
-280 -18 -5 -8 0
-280 -18 -5 -9 0
-280 -18 -5 -10 0
-280 -19 -5 -9 0
-280 -19 -5 -10 0
-280 -20 -5 -10 0
-280 -18 -24 -29 0
-280 -18 -24 -30 0
-280 -18 -24 -31 0
-280 -19 -24 -30 0
-280 -19 -24 -31 0
-280 -20 -24 -31 0
-280 -18 -25 -29 0
-280 -18 -25 -30 0
-280 -18 -25 -31 0
-280 -19 -25 -30 0
-280 -19 -25 -31 0
-280 -20 -25 -31 0
-280 -18 -26 -29 0
-280 -18 -26 -30 0
-280 -18 -26 -31 0
-280 -19 -26 -30 0
-280 -19 -26 -31 0
-280 -20 -26 -31 0
-280 -18 -27 -29 0
-280 -18 -27 -30 0
-280 -18 -27 -31 0
-280 -19 -27 -30 0
-280 -19 -27 -31 0
-280 -20 -27 -31 0
-280 76 0
-280 -18 79 0
-280 -19 80 0
-280 -20 81 0
-280 -63 0
-281 41 0
-281 -21 0
-281 -36 -18 -38 0
-281 -36 -19 -39 0
-281 -36 -20 -40 0
-281 -12 0
-281 -13 0
-281 -14 0
-281 -18 -4 -8 0
-281 -18 -4 -9 0
-281 -18 -4 -10 0
-281 -19 -4 -9 0
-281 -19 -4 -10 0
-281 -20 -4 -10 0
-281 -18 -5 -8 0
-281 -18 -5 -9 0
-281 -18 -5 -10 0
-281 -19 -5 -9 0
-281 -19 -5 -10 0
-281 -20 -5 -10 0
-281 -18 -6 -8 0
-281 -18 -6 -9 0
-281 -18 -6 -10 0
-281 -19 -6 -9 0
-281 -19 -6 -10 0
-281 -20 -6 -10 0
-281 -18 -25 -29 0
-281 -18 -25 -30 0
-281 -18 -25 -31 0
-281 -19 -25 -30 0
-281 -19 -25 -31 0
-281 -20 -25 -31 0
-281 -18 -26 -29 0
-281 -18 -26 -30 0
-281 -18 -26 -31 0
-281 -19 -26 -30 0
-281 -19 -26 -31 0
-281 -20 -26 -31 0
-281 -18 -27 -29 0
-281 -18 -27 -30 0
-281 -18 -27 -31 0
-281 -19 -27 -30 0
-281 -19 -27 -31 0
-281 -20 -27 -31 0
-281 77 0
-281 -18 79 0
-281 -19 80 0
-281 -20 81 0
-281 -63 0
-282 41 0
-282 -31 0
-282 -33 -28 -38 0
-282 -33 -29 -39 0
-282 -33 -30 -40 0
-282 -26 0
-282 -27 0
-282 -28 -1 -8 0
-282 -28 -1 -9 0
-282 -28 -1 -10 0
-282 -29 -1 -9 0
-282 -29 -1 -10 0
-282 -30 -1 -10 0
-282 -28 -2 -8 0
-282 -28 -2 -9 0
-282 -28 -2 -10 0
-282 -29 -2 -9 0
-282 -29 -2 -10 0
-282 -30 -2 -10 0
-282 -28 -3 -8 0
-282 -28 -3 -9 0
-282 -28 -3 -10 0
-282 -29 -3 -9 0
-282 -29 -3 -10 0
-282 -30 -3 -10 0
-282 -28 -12 -19 0
-282 -28 -12 -20 0
-282 -28 -12 -21 0
-282 -29 -12 -20 0
-282 -29 -12 -21 0
-282 -30 -12 -21 0
-282 -28 -13 -19 0
-282 -28 -13 -20 0
-282 -28 -13 -21 0
-282 -29 -13 -20 0
-282 -29 -13 -21 0
-282 -30 -13 -21 0
-282 -28 -14 -19 0
-282 -28 -14 -20 0
-282 -28 -14 -21 0
-282 -29 -14 -20 0
-282 -29 -14 -21 0
-282 -30 -14 -21 0
-282 74 0
-282 -28 79 0
-282 -29 80 0
-282 -30 81 0
-282 -73 0
-283 41 0
-283 -31 0
-283 -34 -28 -38 0
-283 -34 -29 -39 0
-283 -34 -30 -40 0
-283 -27 0
-283 -28 -2 -8 0
-283 -28 -2 -9 0
-283 -28 -2 -10 0
-283 -29 -2 -9 0
-283 -29 -2 -10 0
-283 -30 -2 -10 0
-283 -28 -3 -8 0
-283 -28 -3 -9 0
-283 -28 -3 -10 0
-283 -29 -3 -9 0
-283 -29 -3 -10 0
-283 -30 -3 -10 0
-283 -28 -4 -8 0
-283 -28 -4 -9 0
-283 -28 -4 -10 0
-283 -29 -4 -9 0
-283 -29 -4 -10 0
-283 -30 -4 -10 0
-283 -28 -13 -19 0
-283 -28 -13 -20 0
-283 -28 -13 -21 0
-283 -29 -13 -20 0
-283 -29 -13 -21 0
-283 -30 -13 -21 0
-283 -28 -14 -19 0
-283 -28 -14 -20 0
-283 -28 -14 -21 0
-283 -29 -14 -20 0
-283 -29 -14 -21 0
-283 -30 -14 -21 0
-283 -28 -15 -19 0
-283 -28 -15 -20 0
-283 -28 -15 -21 0
-283 -29 -15 -20 0
-283 -29 -15 -21 0
-283 -30 -15 -21 0
-283 75 0
-283 -28 79 0
-283 -29 80 0
-283 -30 81 0
-283 -73 0
-284 41 0
-284 -31 0
-284 -35 -28 -38 0
-284 -35 -29 -39 0
-284 -35 -30 -40 0
-284 -23 0
-284 -28 -3 -8 0
-284 -28 -3 -9 0
-284 -28 -3 -10 0
-284 -29 -3 -9 0
-284 -29 -3 -10 0
-284 -30 -3 -10 0
-284 -28 -4 -8 0
-284 -28 -4 -9 0
-284 -28 -4 -10 0
-284 -29 -4 -9 0
-284 -29 -4 -10 0
-284 -30 -4 -10 0
-284 -28 -5 -8 0
-284 -28 -5 -9 0
-284 -28 -5 -10 0
-284 -29 -5 -9 0
-284 -29 -5 -10 0
-284 -30 -5 -10 0
-284 -28 -14 -19 0
-284 -28 -14 -20 0
-284 -28 -14 -21 0
-284 -29 -14 -20 0
-284 -29 -14 -21 0
-284 -30 -14 -21 0
-284 -28 -15 -19 0
-284 -28 -15 -20 0
-284 -28 -15 -21 0
-284 -29 -15 -20 0
-284 -29 -15 -21 0
-284 -30 -15 -21 0
-284 -28 -16 -19 0
-284 -28 -16 -20 0
-284 -28 -16 -21 0
-284 -29 -16 -20 0
-284 -29 -16 -21 0
-284 -30 -16 -21 0
-284 76 0
-284 -28 79 0
-284 -29 80 0
-284 -30 81 0
-284 -73 0
-285 41 0
-285 -31 0
-285 -36 -28 -38 0
-285 -36 -29 -39 0
-285 -36 -30 -40 0
-285 -23 0
-285 -24 0
-285 -28 -4 -8 0
-285 -28 -4 -9 0
-285 -28 -4 -10 0
-285 -29 -4 -9 0
-285 -29 -4 -10 0
-285 -30 -4 -10 0
-285 -28 -5 -8 0
-285 -28 -5 -9 0
-285 -28 -5 -10 0
-285 -29 -5 -9 0
-285 -29 -5 -10 0
-285 -30 -5 -10 0
-285 -28 -6 -8 0
-285 -28 -6 -9 0
-285 -28 -6 -10 0
-285 -29 -6 -9 0
-285 -29 -6 -10 0
-285 -30 -6 -10 0
-285 -28 -15 -19 0
-285 -28 -15 -20 0
-285 -28 -15 -21 0
-285 -29 -15 -20 0
-285 -29 -15 -21 0
-285 -30 -15 -21 0
-285 -28 -16 -19 0
-285 -28 -16 -20 0
-285 -28 -16 -21 0
-285 -29 -16 -20 0
-285 -29 -16 -21 0
-285 -30 -16 -21 0
-285 -28 -17 -19 0
-285 -28 -17 -20 0
-285 -28 -17 -21 0
-285 -29 -17 -20 0
-285 -29 -17 -21 0
-285 -30 -17 -21 0
-285 77 0
-285 -28 79 0
-285 -29 80 0
-285 -30 81 0
-285 -73 0
-286 41 0
-286 -33 -37 0
-286 -1 -7 0
-286 -1 -8 0
-286 -1 -9 0
-286 -1 -10 0
-286 -2 -7 0
-286 -2 -8 0
-286 -2 -9 0
-286 -2 -10 0
-286 -3 -7 0
-286 -3 -8 0
-286 -3 -9 0
-286 -3 -10 0
-286 -12 -18 0
-286 -12 -19 0
-286 -12 -20 0
-286 -12 -21 0
-286 -13 -18 0
-286 -13 -19 0
-286 -13 -20 0
-286 -13 -21 0
-286 -14 -18 0
-286 -14 -19 0
-286 -14 -20 0
-286 -14 -21 0
-286 -23 -28 0
-286 -23 -29 0
-286 -23 -30 0
-286 -23 -31 0
-286 -24 -28 0
-286 -24 -29 0
-286 -24 -30 0
-286 -24 -31 0
-286 -25 -28 0
-286 -25 -29 0
-286 -25 -30 0
-286 -25 -31 0
-286 74 0
-286 78 0
-287 41 0
-287 -34 -37 0
-287 -2 -7 0
-287 -2 -8 0
-287 -2 -9 0
-287 -2 -10 0
-287 -3 -7 0
-287 -3 -8 0
-287 -3 -9 0
-287 -3 -10 0
-287 -4 -7 0
-287 -4 -8 0
-287 -4 -9 0
-287 -4 -10 0
-287 -13 -18 0
-287 -13 -19 0
-287 -13 -20 0
-287 -13 -21 0
-287 -14 -18 0
-287 -14 -19 0
-287 -14 -20 0
-287 -14 -21 0
-287 -15 -18 0
-287 -15 -19 0
-287 -15 -20 0
-287 -15 -21 0
-287 -23 -28 0
-287 -23 -29 0
-287 -23 -30 0
-287 -23 -31 0
-287 -24 -28 0
-287 -24 -29 0
-287 -24 -30 0
-287 -24 -31 0
-287 -25 -28 0
-287 -25 -29 0
-287 -25 -30 0
-287 -25 -31 0
-287 -26 -28 0
-287 -26 -29 0
-287 -26 -30 0
-287 -26 -31 0
-287 75 0
-287 78 0
-288 41 0
-288 -35 -37 0
-288 -3 -7 0
-288 -3 -8 0
-288 -3 -9 0
-288 -3 -10 0
-288 -4 -7 0
-288 -4 -8 0
-288 -4 -9 0
-288 -4 -10 0
-288 -5 -7 0
-288 -5 -8 0
-288 -5 -9 0
-288 -5 -10 0
-288 -14 -18 0
-288 -14 -19 0
-288 -14 -20 0
-288 -14 -21 0
-288 -15 -18 0
-288 -15 -19 0
-288 -15 -20 0
-288 -15 -21 0
-288 -16 -18 0
-288 -16 -19 0
-288 -16 -20 0
-288 -16 -21 0
-288 -24 -28 0
-288 -24 -29 0
-288 -24 -30 0
-288 -24 -31 0
-288 -25 -28 0
-288 -25 -29 0
-288 -25 -30 0
-288 -25 -31 0
-288 -26 -28 0
-288 -26 -29 0
-288 -26 -30 0
-288 -26 -31 0
-288 -27 -28 0
-288 -27 -29 0
-288 -27 -30 0
-288 -27 -31 0
-288 76 0
-288 78 0
-289 41 0
-289 -36 -37 0
-289 -4 -7 0
-289 -4 -8 0
-289 -4 -9 0
-289 -4 -10 0
-289 -5 -7 0
-289 -5 -8 0
-289 -5 -9 0
-289 -5 -10 0
-289 -6 -7 0
-289 -6 -8 0
-289 -6 -9 0
-289 -6 -10 0
-289 -15 -18 0
-289 -15 -19 0
-289 -15 -20 0
-289 -15 -21 0
-289 -16 -18 0
-289 -16 -19 0
-289 -16 -20 0
-289 -16 -21 0
-289 -17 -18 0
-289 -17 -19 0
-289 -17 -20 0
-289 -17 -21 0
-289 -25 -28 0
-289 -25 -29 0
-289 -25 -30 0
-289 -25 -31 0
-289 -26 -28 0
-289 -26 -29 0
-289 -26 -30 0
-289 -26 -31 0
-289 -27 -28 0
-289 -27 -29 0
-289 -27 -30 0
-289 -27 -31 0
-289 77 0
-289 78 0
-290 52 0
-290 -62 0
-290 -42 -59 -49 0
-290 -42 -60 -50 0
-290 -42 -61 -51 0
-290 -54 0
-290 -55 0
-290 -56 0
-290 -57 0
-290 -58 0
-290 -59 -64 -70 0
-290 -59 -64 -71 0
-290 -59 -64 -72 0
-290 -60 -64 -71 0
-290 -60 -64 -72 0
-290 -61 -64 -72 0
-290 -59 -74 -79 0
-290 -59 -74 -80 0
-290 -59 -74 -81 0
-290 -60 -74 -80 0
-290 -60 -74 -81 0
-290 -61 -74 -81 0
-290 83 0
-290 -59 90 0
-290 -60 91 0
-290 -61 92 0
-290 -104 0
-291 52 0
-291 -62 0
-291 -43 -59 -49 0
-291 -43 -60 -50 0
-291 -43 -61 -51 0
-291 -53 0
-291 -55 0
-291 -56 0
-291 -57 0
-291 -58 0
-291 -59 -64 -70 0
-291 -59 -64 -71 0
-291 -59 -64 -72 0
-291 -60 -64 -71 0
-291 -60 -64 -72 0
-291 -61 -64 -72 0
-291 -59 -65 -70 0
-291 -59 -65 -71 0
-291 -59 -65 -72 0
-291 -60 -65 -71 0
-291 -60 -65 -72 0
-291 -61 -65 -72 0
-291 -59 -74 -79 0
-291 -59 -74 -80 0
-291 -59 -74 -81 0
-291 -60 -74 -80 0
-291 -60 -74 -81 0
-291 -61 -74 -81 0
-291 -59 -75 -79 0
-291 -59 -75 -80 0
-291 -59 -75 -81 0
-291 -60 -75 -80 0
-291 -60 -75 -81 0
-291 -61 -75 -81 0
-291 84 0
-291 -59 90 0
-291 -60 91 0
-291 -61 92 0
-291 -104 0
-292 52 0
-292 -62 0
-292 -44 -59 -49 0
-292 -44 -60 -50 0
-292 -44 -61 -51 0
-292 -53 0
-292 -54 0
-292 -56 0
-292 -57 0
-292 -58 0
-292 -59 -65 -70 0
-292 -59 -65 -71 0
-292 -59 -65 -72 0
-292 -60 -65 -71 0
-292 -60 -65 -72 0
-292 -61 -65 -72 0
-292 -59 -66 -70 0
-292 -59 -66 -71 0
-292 -59 -66 -72 0
-292 -60 -66 -71 0
-292 -60 -66 -72 0
-292 -61 -66 -72 0
-292 -59 -74 -79 0
-292 -59 -74 -80 0
-292 -59 -74 -81 0
-292 -60 -74 -80 0
-292 -60 -74 -81 0
-292 -61 -74 -81 0
-292 -59 -75 -79 0
-292 -59 -75 -80 0
-292 -59 -75 -81 0
-292 -60 -75 -80 0
-292 -60 -75 -81 0
-292 -61 -75 -81 0
-292 -59 -76 -79 0
-292 -59 -76 -80 0
-292 -59 -76 -81 0
-292 -60 -76 -80 0
-292 -60 -76 -81 0
-292 -61 -76 -81 0
-292 85 0
-292 -59 90 0
-292 -60 91 0
-292 -61 92 0
-292 -104 0
-293 52 0
-293 -62 0
-293 -45 -59 -49 0
-293 -45 -60 -50 0
-293 -45 -61 -51 0
-293 -53 0
-293 -54 0
-293 -55 0
-293 -57 0
-293 -58 0
-293 -59 -66 -70 0
-293 -59 -66 -71 0
-293 -59 -66 -72 0
-293 -60 -66 -71 0
-293 -60 -66 -72 0
-293 -61 -66 -72 0
-293 -59 -67 -70 0
-293 -59 -67 -71 0
-293 -59 -67 -72 0
-293 -60 -67 -71 0
-293 -60 -67 -72 0
-293 -61 -67 -72 0
-293 -59 -75 -79 0
-293 -59 -75 -80 0
-293 -59 -75 -81 0
-293 -60 -75 -80 0
-293 -60 -75 -81 0
-293 -61 -75 -81 0
-293 -59 -76 -79 0
-293 -59 -76 -80 0
-293 -59 -76 -81 0
-293 -60 -76 -80 0
-293 -60 -76 -81 0
-293 -61 -76 -81 0
-293 -59 -77 -79 0
-293 -59 -77 -80 0
-293 -59 -77 -81 0
-293 -60 -77 -80 0
-293 -60 -77 -81 0
-293 -61 -77 -81 0
-293 86 0
-293 -59 90 0
-293 -60 91 0
-293 -61 92 0
-293 -104 0
-294 52 0
-294 -62 0
-294 -46 -59 -49 0
-294 -46 -60 -50 0
-294 -46 -61 -51 0
-294 -53 0
-294 -54 0
-294 -55 0
-294 -56 0
-294 -58 0
-294 -59 -67 -70 0
-294 -59 -67 -71 0
-294 -59 -67 -72 0
-294 -60 -67 -71 0
-294 -60 -67 -72 0
-294 -61 -67 -72 0
-294 -59 -68 -70 0
-294 -59 -68 -71 0
-294 -59 -68 -72 0
-294 -60 -68 -71 0
-294 -60 -68 -72 0
-294 -61 -68 -72 0
-294 -59 -76 -79 0
-294 -59 -76 -80 0
-294 -59 -76 -81 0
-294 -60 -76 -80 0
-294 -60 -76 -81 0
-294 -61 -76 -81 0
-294 -59 -77 -79 0
-294 -59 -77 -80 0
-294 -59 -77 -81 0
-294 -60 -77 -80 0
-294 -60 -77 -81 0
-294 -61 -77 -81 0
-294 87 0
-294 -59 90 0
-294 -60 91 0
-294 -61 92 0
-294 -104 0
-295 52 0
-295 -62 0
-295 -47 -59 -49 0
-295 -47 -60 -50 0
-295 -47 -61 -51 0
-295 -53 0
-295 -54 0
-295 -55 0
-295 -56 0
-295 -57 0
-295 -59 -68 -70 0
-295 -59 -68 -71 0
-295 -59 -68 -72 0
-295 -60 -68 -71 0
-295 -60 -68 -72 0
-295 -61 -68 -72 0
-295 -59 -77 -79 0
-295 -59 -77 -80 0
-295 -59 -77 -81 0
-295 -60 -77 -80 0
-295 -60 -77 -81 0
-295 -61 -77 -81 0
-295 88 0
-295 -59 90 0
-295 -60 91 0
-295 -61 92 0
-295 -104 0
-296 52 0
-296 -72 0
-296 -42 -69 -49 0
-296 -42 -70 -50 0
-296 -42 -71 -51 0
-296 -65 0
-296 -66 0
-296 -67 0
-296 -68 0
-296 -69 -53 -60 0
-296 -69 -53 -61 0
-296 -69 -53 -62 0
-296 -70 -53 -61 0
-296 -70 -53 -62 0
-296 -71 -53 -62 0
-296 -69 -74 -79 0
-296 -69 -74 -80 0
-296 -69 -74 -81 0
-296 -70 -74 -80 0
-296 -70 -74 -81 0
-296 -71 -74 -81 0
-296 83 0
-296 -69 90 0
-296 -70 91 0
-296 -71 92 0
-296 -114 0
-297 52 0
-297 -72 0
-297 -43 -69 -49 0
-297 -43 -70 -50 0
-297 -43 -71 -51 0
-297 -66 0
-297 -67 0
-297 -68 0
-297 -69 -54 -60 0
-297 -69 -54 -61 0
-297 -69 -54 -62 0
-297 -70 -54 -61 0
-297 -70 -54 -62 0
-297 -71 -54 -62 0
-297 -69 -74 -79 0
-297 -69 -74 -80 0
-297 -69 -74 -81 0
-297 -70 -74 -80 0
-297 -70 -74 -81 0
-297 -71 -74 -81 0
-297 -69 -75 -79 0
-297 -69 -75 -80 0
-297 -69 -75 -81 0
-297 -70 -75 -80 0
-297 -70 -75 -81 0
-297 -71 -75 -81 0
-297 84 0
-297 -69 90 0
-297 -70 91 0
-297 -71 92 0
-297 -114 0
-298 52 0
-298 -72 0
-298 -44 -69 -49 0
-298 -44 -70 -50 0
-298 -44 -71 -51 0
-298 -64 0
-298 -67 0
-298 -68 0
-298 -69 -55 -60 0
-298 -69 -55 -61 0
-298 -69 -55 -62 0
-298 -70 -55 -61 0
-298 -70 -55 -62 0
-298 -71 -55 -62 0
-298 -69 -74 -79 0
-298 -69 -74 -80 0
-298 -69 -74 -81 0
-298 -70 -74 -80 0
-298 -70 -74 -81 0
-298 -71 -74 -81 0
-298 -69 -75 -79 0
-298 -69 -75 -80 0
-298 -69 -75 -81 0
-298 -70 -75 -80 0
-298 -70 -75 -81 0
-298 -71 -75 -81 0
-298 -69 -76 -79 0
-298 -69 -76 -80 0
-298 -69 -76 -81 0
-298 -70 -76 -80 0
-298 -70 -76 -81 0
-298 -71 -76 -81 0
-298 85 0
-298 -69 90 0
-298 -70 91 0
-298 -71 92 0
-298 -114 0
-299 52 0
-299 -72 0
-299 -45 -69 -49 0
-299 -45 -70 -50 0
-299 -45 -71 -51 0
-299 -64 0
-299 -65 0
-299 -68 0
-299 -69 -56 -60 0
-299 -69 -56 -61 0
-299 -69 -56 -62 0
-299 -70 -56 -61 0
-299 -70 -56 -62 0
-299 -71 -56 -62 0
-299 -69 -75 -79 0
-299 -69 -75 -80 0
-299 -69 -75 -81 0
-299 -70 -75 -80 0
-299 -70 -75 -81 0
-299 -71 -75 -81 0
-299 -69 -76 -79 0
-299 -69 -76 -80 0
-299 -69 -76 -81 0
-299 -70 -76 -80 0
-299 -70 -76 -81 0
-299 -71 -76 -81 0
-299 -69 -77 -79 0
-299 -69 -77 -80 0
-299 -69 -77 -81 0
-299 -70 -77 -80 0
-299 -70 -77 -81 0
-299 -71 -77 -81 0
-299 86 0
-299 -69 90 0
-299 -70 91 0
-299 -71 92 0
-299 -114 0
-300 52 0
-300 -72 0
-300 -46 -69 -49 0
-300 -46 -70 -50 0
-300 -46 -71 -51 0
-300 -64 0
-300 -65 0
-300 -66 0
-300 -69 -57 -60 0
-300 -69 -57 -61 0
-300 -69 -57 -62 0
-300 -70 -57 -61 0
-300 -70 -57 -62 0
-300 -71 -57 -62 0
-300 -69 -76 -79 0
-300 -69 -76 -80 0
-300 -69 -76 -81 0
-300 -70 -76 -80 0
-300 -70 -76 -81 0
-300 -71 -76 -81 0
-300 -69 -77 -79 0
-300 -69 -77 -80 0
-300 -69 -77 -81 0
-300 -70 -77 -80 0
-300 -70 -77 -81 0
-300 -71 -77 -81 0
-300 87 0
-300 -69 90 0
-300 -70 91 0
-300 -71 92 0
-300 -114 0
-301 52 0
-301 -72 0
-301 -47 -69 -49 0
-301 -47 -70 -50 0
-301 -47 -71 -51 0
-301 -64 0
-301 -65 0
-301 -66 0
-301 -67 0
-301 -69 -58 -60 0
-301 -69 -58 -61 0
-301 -69 -58 -62 0
-301 -70 -58 -61 0
-301 -70 -58 -62 0
-301 -71 -58 -62 0
-301 -69 -77 -79 0
-301 -69 -77 -80 0
-301 -69 -77 -81 0
-301 -70 -77 -80 0
-301 -70 -77 -81 0
-301 -71 -77 -81 0
-301 88 0
-301 -69 90 0
-301 -70 91 0
-301 -71 92 0
-301 -114 0
-302 52 0
-302 -81 0
-302 -42 -78 -49 0
-302 -42 -79 -50 0
-302 -42 -80 -51 0
-302 -75 0
-302 -76 0
-302 -77 0
-302 -78 -53 -60 0
-302 -78 -53 -61 0
-302 -78 -53 -62 0
-302 -79 -53 -61 0
-302 -79 -53 -62 0
-302 -80 -53 -62 0
-302 -78 -64 -70 0
-302 -78 -64 -71 0
-302 -78 -64 -72 0
-302 -79 -64 -71 0
-302 -79 -64 -72 0
-302 -80 -64 -72 0
-302 83 0
-302 -78 90 0
-302 -79 91 0
-302 -80 92 0
-302 -123 0
-303 52 0
-303 -81 0
-303 -43 -78 -49 0
-303 -43 -79 -50 0
-303 -43 -80 -51 0
-303 -76 0
-303 -77 0
-303 -78 -54 -60 0
-303 -78 -54 -61 0
-303 -78 -54 -62 0
-303 -79 -54 -61 0
-303 -79 -54 -62 0
-303 -80 -54 -62 0
-303 -78 -64 -70 0
-303 -78 -64 -71 0
-303 -78 -64 -72 0
-303 -79 -64 -71 0
-303 -79 -64 -72 0
-303 -80 -64 -72 0
-303 -78 -65 -70 0
-303 -78 -65 -71 0
-303 -78 -65 -72 0
-303 -79 -65 -71 0
-303 -79 -65 -72 0
-303 -80 -65 -72 0
-303 84 0
-303 -78 90 0
-303 -79 91 0
-303 -80 92 0
-303 -123 0
-304 52 0
-304 -81 0
-304 -44 -78 -49 0
-304 -44 -79 -50 0
-304 -44 -80 -51 0
-304 -77 0
-304 -78 -55 -60 0
-304 -78 -55 -61 0
-304 -78 -55 -62 0
-304 -79 -55 -61 0
-304 -79 -55 -62 0
-304 -80 -55 -62 0
-304 -78 -65 -70 0
-304 -78 -65 -71 0
-304 -78 -65 -72 0
-304 -79 -65 -71 0
-304 -79 -65 -72 0
-304 -80 -65 -72 0
-304 -78 -66 -70 0
-304 -78 -66 -71 0
-304 -78 -66 -72 0
-304 -79 -66 -71 0
-304 -79 -66 -72 0
-304 -80 -66 -72 0
-304 85 0
-304 -78 90 0
-304 -79 91 0
-304 -80 92 0
-304 -123 0
-305 52 0
-305 -81 0
-305 -45 -78 -49 0
-305 -45 -79 -50 0
-305 -45 -80 -51 0
-305 -74 0
-305 -78 -56 -60 0
-305 -78 -56 -61 0
-305 -78 -56 -62 0
-305 -79 -56 -61 0
-305 -79 -56 -62 0
-305 -80 -56 -62 0
-305 -78 -66 -70 0
-305 -78 -66 -71 0
-305 -78 -66 -72 0
-305 -79 -66 -71 0
-305 -79 -66 -72 0
-305 -80 -66 -72 0
-305 -78 -67 -70 0
-305 -78 -67 -71 0
-305 -78 -67 -72 0
-305 -79 -67 -71 0
-305 -79 -67 -72 0
-305 -80 -67 -72 0
-305 86 0
-305 -78 90 0
-305 -79 91 0
-305 -80 92 0
-305 -123 0
-306 52 0
-306 -81 0
-306 -46 -78 -49 0
-306 -46 -79 -50 0
-306 -46 -80 -51 0
-306 -74 0
-306 -75 0
-306 -78 -57 -60 0
-306 -78 -57 -61 0
-306 -78 -57 -62 0
-306 -79 -57 -61 0
-306 -79 -57 -62 0
-306 -80 -57 -62 0
-306 -78 -67 -70 0
-306 -78 -67 -71 0
-306 -78 -67 -72 0
-306 -79 -67 -71 0
-306 -79 -67 -72 0
-306 -80 -67 -72 0
-306 -78 -68 -70 0
-306 -78 -68 -71 0
-306 -78 -68 -72 0
-306 -79 -68 -71 0
-306 -79 -68 -72 0
-306 -80 -68 -72 0
-306 87 0
-306 -78 90 0
-306 -79 91 0
-306 -80 92 0
-306 -123 0
-307 52 0
-307 -81 0
-307 -47 -78 -49 0
-307 -47 -79 -50 0
-307 -47 -80 -51 0
-307 -74 0
-307 -75 0
-307 -76 0
-307 -78 -58 -60 0
-307 -78 -58 -61 0
-307 -78 -58 -62 0
-307 -79 -58 -61 0
-307 -79 -58 -62 0
-307 -80 -58 -62 0
-307 -78 -68 -70 0
-307 -78 -68 -71 0
-307 -78 -68 -72 0
-307 -79 -68 -71 0
-307 -79 -68 -72 0
-307 -80 -68 -72 0
-307 88 0
-307 -78 90 0
-307 -79 91 0
-307 -80 92 0
-307 -123 0
-308 52 0
-308 -42 -48 0
-308 -53 -59 0
-308 -53 -60 0
-308 -53 -61 0
-308 -53 -62 0
-308 -64 -69 0
-308 -64 -70 0
-308 -64 -71 0
-308 -64 -72 0
-308 -74 -78 0
-308 -74 -79 0
-308 -74 -80 0
-308 -74 -81 0
-308 83 0
-308 89 0
-309 52 0
-309 -43 -48 0
-309 -54 -59 0
-309 -54 -60 0
-309 -54 -61 0
-309 -54 -62 0
-309 -64 -69 0
-309 -64 -70 0
-309 -64 -71 0
-309 -64 -72 0
-309 -65 -69 0
-309 -65 -70 0
-309 -65 -71 0
-309 -65 -72 0
-309 -74 -78 0
-309 -74 -79 0
-309 -74 -80 0
-309 -74 -81 0
-309 -75 -78 0
-309 -75 -79 0
-309 -75 -80 0
-309 -75 -81 0
-309 84 0
-309 89 0
-310 52 0
-310 -44 -48 0
-310 -55 -59 0
-310 -55 -60 0
-310 -55 -61 0
-310 -55 -62 0
-310 -65 -69 0
-310 -65 -70 0
-310 -65 -71 0
-310 -65 -72 0
-310 -66 -69 0
-310 -66 -70 0
-310 -66 -71 0
-310 -66 -72 0
-310 -74 -78 0
-310 -74 -79 0
-310 -74 -80 0
-310 -74 -81 0
-310 -75 -78 0
-310 -75 -79 0
-310 -75 -80 0
-310 -75 -81 0
-310 -76 -78 0
-310 -76 -79 0
-310 -76 -80 0
-310 -76 -81 0
-310 85 0
-310 89 0
-311 52 0
-311 -45 -48 0
-311 -56 -59 0
-311 -56 -60 0
-311 -56 -61 0
-311 -56 -62 0
-311 -66 -69 0
-311 -66 -70 0
-311 -66 -71 0
-311 -66 -72 0
-311 -67 -69 0
-311 -67 -70 0
-311 -67 -71 0
-311 -67 -72 0
-311 -75 -78 0
-311 -75 -79 0
-311 -75 -80 0
-311 -75 -81 0
-311 -76 -78 0
-311 -76 -79 0
-311 -76 -80 0
-311 -76 -81 0
-311 -77 -78 0
-311 -77 -79 0
-311 -77 -80 0
-311 -77 -81 0
-311 86 0
-311 89 0
-312 52 0
-312 -46 -48 0
-312 -57 -59 0
-312 -57 -60 0
-312 -57 -61 0
-312 -57 -62 0
-312 -67 -69 0
-312 -67 -70 0
-312 -67 -71 0
-312 -67 -72 0
-312 -68 -69 0
-312 -68 -70 0
-312 -68 -71 0
-312 -68 -72 0
-312 -76 -78 0
-312 -76 -79 0
-312 -76 -80 0
-312 -76 -81 0
-312 -77 -78 0
-312 -77 -79 0
-312 -77 -80 0
-312 -77 -81 0
-312 87 0
-312 89 0
-313 52 0
-313 -47 -48 0
-313 -58 -59 0
-313 -58 -60 0
-313 -58 -61 0
-313 -58 -62 0
-313 -68 -69 0
-313 -68 -70 0
-313 -68 -71 0
-313 -68 -72 0
-313 -77 -78 0
-313 -77 -79 0
-313 -77 -80 0
-313 -77 -81 0
-313 88 0
-313 89 0
-314 63 0
-314 -51 0
-314 -53 -48 -60 0
-314 -53 -49 -61 0
-314 -53 -50 -62 0
-314 -43 0
-314 -44 0
-314 -45 0
-314 -46 0
-314 -47 0
-314 -48 -64 -70 0
-314 -48 -64 -71 0
-314 -48 -64 -72 0
-314 -49 -64 -71 0
-314 -49 -64 -72 0
-314 -50 -64 -72 0
-314 -48 -74 -79 0
-314 -48 -74 -80 0
-314 -48 -74 -81 0
-314 -49 -74 -80 0
-314 -49 -74 -81 0
-314 -50 -74 -81 0
-314 94 0
-314 -48 101 0
-314 -49 102 0
-314 -50 103 0
-314 -93 0
-315 63 0
-315 -51 0
-315 -54 -48 -60 0
-315 -54 -49 -61 0
-315 -54 -50 -62 0
-315 -42 0
-315 -44 0
-315 -45 0
-315 -46 0
-315 -47 0
-315 -48 -64 -70 0
-315 -48 -64 -71 0
-315 -48 -64 -72 0
-315 -49 -64 -71 0
-315 -49 -64 -72 0
-315 -50 -64 -72 0
-315 -48 -65 -70 0
-315 -48 -65 -71 0
-315 -48 -65 -72 0
-315 -49 -65 -71 0
-315 -49 -65 -72 0
-315 -50 -65 -72 0
-315 -48 -74 -79 0
-315 -48 -74 -80 0
-315 -48 -74 -81 0
-315 -49 -74 -80 0
-315 -49 -74 -81 0
-315 -50 -74 -81 0
-315 -48 -75 -79 0
-315 -48 -75 -80 0
-315 -48 -75 -81 0
-315 -49 -75 -80 0
-315 -49 -75 -81 0
-315 -50 -75 -81 0
-315 95 0
-315 -48 101 0
-315 -49 102 0
-315 -50 103 0
-315 -93 0
-316 63 0
-316 -51 0
-316 -55 -48 -60 0
-316 -55 -49 -61 0
-316 -55 -50 -62 0
-316 -42 0
-316 -43 0
-316 -45 0
-316 -46 0
-316 -47 0
-316 -48 -65 -70 0
-316 -48 -65 -71 0
-316 -48 -65 -72 0
-316 -49 -65 -71 0
-316 -49 -65 -72 0
-316 -50 -65 -72 0
-316 -48 -66 -70 0
-316 -48 -66 -71 0
-316 -48 -66 -72 0
-316 -49 -66 -71 0
-316 -49 -66 -72 0
-316 -50 -66 -72 0
-316 -48 -74 -79 0
-316 -48 -74 -80 0
-316 -48 -74 -81 0
-316 -49 -74 -80 0
-316 -49 -74 -81 0
-316 -50 -74 -81 0
-316 -48 -75 -79 0
-316 -48 -75 -80 0
-316 -48 -75 -81 0
-316 -49 -75 -80 0
-316 -49 -75 -81 0
-316 -50 -75 -81 0
-316 -48 -76 -79 0
-316 -48 -76 -80 0
-316 -48 -76 -81 0
-316 -49 -76 -80 0
-316 -49 -76 -81 0
-316 -50 -76 -81 0
-316 96 0
-316 -48 101 0
-316 -49 102 0
-316 -50 103 0
-316 -93 0
-317 63 0
-317 -51 0
-317 -56 -48 -60 0
-317 -56 -49 -61 0
-317 -56 -50 -62 0
-317 -42 0
-317 -43 0
-317 -44 0
-317 -46 0
-317 -47 0
-317 -48 -66 -70 0
-317 -48 -66 -71 0
-317 -48 -66 -72 0
-317 -49 -66 -71 0
-317 -49 -66 -72 0
-317 -50 -66 -72 0
-317 -48 -67 -70 0
-317 -48 -67 -71 0
-317 -48 -67 -72 0
-317 -49 -67 -71 0
-317 -49 -67 -72 0
-317 -50 -67 -72 0
-317 -48 -75 -79 0
-317 -48 -75 -80 0
-317 -48 -75 -81 0
-317 -49 -75 -80 0
-317 -49 -75 -81 0
-317 -50 -75 -81 0
-317 -48 -76 -79 0
-317 -48 -76 -80 0
-317 -48 -76 -81 0
-317 -49 -76 -80 0
-317 -49 -76 -81 0
-317 -50 -76 -81 0
-317 -48 -77 -79 0
-317 -48 -77 -80 0
-317 -48 -77 -81 0
-317 -49 -77 -80 0
-317 -49 -77 -81 0
-317 -50 -77 -81 0
-317 97 0
-317 -48 101 0
-317 -49 102 0
-317 -50 103 0
-317 -93 0
-318 63 0
-318 -51 0
-318 -57 -48 -60 0
-318 -57 -49 -61 0
-318 -57 -50 -62 0
-318 -42 0
-318 -43 0
-318 -44 0
-318 -45 0
-318 -47 0
-318 -48 -67 -70 0
-318 -48 -67 -71 0
-318 -48 -67 -72 0
-318 -49 -67 -71 0
-318 -49 -67 -72 0
-318 -50 -67 -72 0
-318 -48 -68 -70 0
-318 -48 -68 -71 0
-318 -48 -68 -72 0
-318 -49 -68 -71 0
-318 -49 -68 -72 0
-318 -50 -68 -72 0
-318 -48 -76 -79 0
-318 -48 -76 -80 0
-318 -48 -76 -81 0
-318 -49 -76 -80 0
-318 -49 -76 -81 0
-318 -50 -76 -81 0
-318 -48 -77 -79 0
-318 -48 -77 -80 0
-318 -48 -77 -81 0
-318 -49 -77 -80 0
-318 -49 -77 -81 0
-318 -50 -77 -81 0
-318 98 0
-318 -48 101 0
-318 -49 102 0
-318 -50 103 0
-318 -93 0
-319 63 0
-319 -51 0
-319 -58 -48 -60 0
-319 -58 -49 -61 0
-319 -58 -50 -62 0
-319 -42 0
-319 -43 0
-319 -44 0
-319 -45 0
-319 -46 0
-319 -48 -68 -70 0
-319 -48 -68 -71 0
-319 -48 -68 -72 0
-319 -49 -68 -71 0
-319 -49 -68 -72 0
-319 -50 -68 -72 0
-319 -48 -77 -79 0
-319 -48 -77 -80 0
-319 -48 -77 -81 0
-319 -49 -77 -80 0
-319 -49 -77 -81 0
-319 -50 -77 -81 0
-319 99 0
-319 -48 101 0
-319 -49 102 0
-319 -50 103 0
-319 -93 0
-320 63 0
-320 -72 0
-320 -53 -69 -60 0
-320 -53 -70 -61 0
-320 -53 -71 -62 0
-320 -65 0
-320 -66 0
-320 -67 0
-320 -68 0
-320 -69 -42 -49 0
-320 -69 -42 -50 0
-320 -69 -42 -51 0
-320 -70 -42 -50 0
-320 -70 -42 -51 0
-320 -71 -42 -51 0
-320 -69 -74 -79 0
-320 -69 -74 -80 0
-320 -69 -74 -81 0
-320 -70 -74 -80 0
-320 -70 -74 -81 0
-320 -71 -74 -81 0
-320 94 0
-320 -69 101 0
-320 -70 102 0
-320 -71 103 0
-320 -114 0
-321 63 0
-321 -72 0
-321 -54 -69 -60 0
-321 -54 -70 -61 0
-321 -54 -71 -62 0
-321 -66 0
-321 -67 0
-321 -68 0
-321 -69 -43 -49 0
-321 -69 -43 -50 0
-321 -69 -43 -51 0
-321 -70 -43 -50 0
-321 -70 -43 -51 0
-321 -71 -43 -51 0
-321 -69 -74 -79 0
-321 -69 -74 -80 0
-321 -69 -74 -81 0
-321 -70 -74 -80 0
-321 -70 -74 -81 0
-321 -71 -74 -81 0
-321 -69 -75 -79 0
-321 -69 -75 -80 0
-321 -69 -75 -81 0
-321 -70 -75 -80 0
-321 -70 -75 -81 0
-321 -71 -75 -81 0
-321 95 0
-321 -69 101 0
-321 -70 102 0
-321 -71 103 0
-321 -114 0
-322 63 0
-322 -72 0
-322 -55 -69 -60 0
-322 -55 -70 -61 0
-322 -55 -71 -62 0
-322 -64 0
-322 -67 0
-322 -68 0
-322 -69 -44 -49 0
-322 -69 -44 -50 0
-322 -69 -44 -51 0
-322 -70 -44 -50 0
-322 -70 -44 -51 0
-322 -71 -44 -51 0
-322 -69 -74 -79 0
-322 -69 -74 -80 0
-322 -69 -74 -81 0
-322 -70 -74 -80 0
-322 -70 -74 -81 0
-322 -71 -74 -81 0
-322 -69 -75 -79 0
-322 -69 -75 -80 0
-322 -69 -75 -81 0
-322 -70 -75 -80 0
-322 -70 -75 -81 0
-322 -71 -75 -81 0
-322 -69 -76 -79 0
-322 -69 -76 -80 0
-322 -69 -76 -81 0
-322 -70 -76 -80 0
-322 -70 -76 -81 0
-322 -71 -76 -81 0
-322 96 0
-322 -69 101 0
-322 -70 102 0
-322 -71 103 0
-322 -114 0
-323 63 0
-323 -72 0
-323 -56 -69 -60 0
-323 -56 -70 -61 0
-323 -56 -71 -62 0
-323 -64 0
-323 -65 0
-323 -68 0
-323 -69 -45 -49 0
-323 -69 -45 -50 0
-323 -69 -45 -51 0
-323 -70 -45 -50 0
-323 -70 -45 -51 0
-323 -71 -45 -51 0
-323 -69 -75 -79 0
-323 -69 -75 -80 0
-323 -69 -75 -81 0
-323 -70 -75 -80 0
-323 -70 -75 -81 0
-323 -71 -75 -81 0
-323 -69 -76 -79 0
-323 -69 -76 -80 0
-323 -69 -76 -81 0
-323 -70 -76 -80 0
-323 -70 -76 -81 0
-323 -71 -76 -81 0
-323 -69 -77 -79 0
-323 -69 -77 -80 0
-323 -69 -77 -81 0
-323 -70 -77 -80 0
-323 -70 -77 -81 0
-323 -71 -77 -81 0
-323 97 0
-323 -69 101 0
-323 -70 102 0
-323 -71 103 0
-323 -114 0
-324 63 0
-324 -72 0
-324 -57 -69 -60 0
-324 -57 -70 -61 0
-324 -57 -71 -62 0
-324 -64 0
-324 -65 0
-324 -66 0
-324 -69 -46 -49 0
-324 -69 -46 -50 0
-324 -69 -46 -51 0
-324 -70 -46 -50 0
-324 -70 -46 -51 0
-324 -71 -46 -51 0
-324 -69 -76 -79 0
-324 -69 -76 -80 0
-324 -69 -76 -81 0
-324 -70 -76 -80 0
-324 -70 -76 -81 0
-324 -71 -76 -81 0
-324 -69 -77 -79 0
-324 -69 -77 -80 0
-324 -69 -77 -81 0
-324 -70 -77 -80 0
-324 -70 -77 -81 0
-324 -71 -77 -81 0
-324 98 0
-324 -69 101 0
-324 -70 102 0
-324 -71 103 0
-324 -114 0
-325 63 0
-325 -72 0
-325 -58 -69 -60 0
-325 -58 -70 -61 0
-325 -58 -71 -62 0
-325 -64 0
-325 -65 0
-325 -66 0
-325 -67 0
-325 -69 -47 -49 0
-325 -69 -47 -50 0
-325 -69 -47 -51 0
-325 -70 -47 -50 0
-325 -70 -47 -51 0
-325 -71 -47 -51 0
-325 -69 -77 -79 0
-325 -69 -77 -80 0
-325 -69 -77 -81 0
-325 -70 -77 -80 0
-325 -70 -77 -81 0
-325 -71 -77 -81 0
-325 99 0
-325 -69 101 0
-325 -70 102 0
-325 -71 103 0
-325 -114 0
-326 63 0
-326 -81 0
-326 -53 -78 -60 0
-326 -53 -79 -61 0
-326 -53 -80 -62 0
-326 -75 0
-326 -76 0
-326 -77 0
-326 -78 -42 -49 0
-326 -78 -42 -50 0
-326 -78 -42 -51 0
-326 -79 -42 -50 0
-326 -79 -42 -51 0
-326 -80 -42 -51 0
-326 -78 -64 -70 0
-326 -78 -64 -71 0
-326 -78 -64 -72 0
-326 -79 -64 -71 0
-326 -79 -64 -72 0
-326 -80 -64 -72 0
-326 94 0
-326 -78 101 0
-326 -79 102 0
-326 -80 103 0
-326 -123 0
-327 63 0
-327 -81 0
-327 -54 -78 -60 0
-327 -54 -79 -61 0
-327 -54 -80 -62 0
-327 -76 0
-327 -77 0
-327 -78 -43 -49 0
-327 -78 -43 -50 0
-327 -78 -43 -51 0
-327 -79 -43 -50 0
-327 -79 -43 -51 0
-327 -80 -43 -51 0
-327 -78 -64 -70 0
-327 -78 -64 -71 0
-327 -78 -64 -72 0
-327 -79 -64 -71 0
-327 -79 -64 -72 0
-327 -80 -64 -72 0
-327 -78 -65 -70 0
-327 -78 -65 -71 0
-327 -78 -65 -72 0
-327 -79 -65 -71 0
-327 -79 -65 -72 0
-327 -80 -65 -72 0
-327 95 0
-327 -78 101 0
-327 -79 102 0
-327 -80 103 0
-327 -123 0
-328 63 0
-328 -81 0
-328 -55 -78 -60 0
-328 -55 -79 -61 0
-328 -55 -80 -62 0
-328 -77 0
-328 -78 -44 -49 0
-328 -78 -44 -50 0
-328 -78 -44 -51 0
-328 -79 -44 -50 0
-328 -79 -44 -51 0
-328 -80 -44 -51 0
-328 -78 -65 -70 0
-328 -78 -65 -71 0
-328 -78 -65 -72 0
-328 -79 -65 -71 0
-328 -79 -65 -72 0
-328 -80 -65 -72 0
-328 -78 -66 -70 0
-328 -78 -66 -71 0
-328 -78 -66 -72 0
-328 -79 -66 -71 0
-328 -79 -66 -72 0
-328 -80 -66 -72 0
-328 96 0
-328 -78 101 0
-328 -79 102 0
-328 -80 103 0
-328 -123 0
-329 63 0
-329 -81 0
-329 -56 -78 -60 0
-329 -56 -79 -61 0
-329 -56 -80 -62 0
-329 -74 0
-329 -78 -45 -49 0
-329 -78 -45 -50 0
-329 -78 -45 -51 0
-329 -79 -45 -50 0
-329 -79 -45 -51 0
-329 -80 -45 -51 0
-329 -78 -66 -70 0
-329 -78 -66 -71 0
-329 -78 -66 -72 0
-329 -79 -66 -71 0
-329 -79 -66 -72 0
-329 -80 -66 -72 0
-329 -78 -67 -70 0
-329 -78 -67 -71 0
-329 -78 -67 -72 0
-329 -79 -67 -71 0
-329 -79 -67 -72 0
-329 -80 -67 -72 0
-329 97 0
-329 -78 101 0
-329 -79 102 0
-329 -80 103 0
-329 -123 0
-330 63 0
-330 -81 0
-330 -57 -78 -60 0
-330 -57 -79 -61 0
-330 -57 -80 -62 0
-330 -74 0
-330 -75 0
-330 -78 -46 -49 0
-330 -78 -46 -50 0
-330 -78 -46 -51 0
-330 -79 -46 -50 0
-330 -79 -46 -51 0
-330 -80 -46 -51 0
-330 -78 -67 -70 0
-330 -78 -67 -71 0
-330 -78 -67 -72 0
-330 -79 -67 -71 0
-330 -79 -67 -72 0
-330 -80 -67 -72 0
-330 -78 -68 -70 0
-330 -78 -68 -71 0
-330 -78 -68 -72 0
-330 -79 -68 -71 0
-330 -79 -68 -72 0
-330 -80 -68 -72 0
-330 98 0
-330 -78 101 0
-330 -79 102 0
-330 -80 103 0
-330 -123 0
-331 63 0
-331 -81 0
-331 -58 -78 -60 0
-331 -58 -79 -61 0
-331 -58 -80 -62 0
-331 -74 0
-331 -75 0
-331 -76 0
-331 -78 -47 -49 0
-331 -78 -47 -50 0
-331 -78 -47 -51 0
-331 -79 -47 -50 0
-331 -79 -47 -51 0
-331 -80 -47 -51 0
-331 -78 -68 -70 0
-331 -78 -68 -71 0
-331 -78 -68 -72 0
-331 -79 -68 -71 0
-331 -79 -68 -72 0
-331 -80 -68 -72 0
-331 99 0
-331 -78 101 0
-331 -79 102 0
-331 -80 103 0
-331 -123 0
-332 63 0
-332 -53 -59 0
-332 -42 -48 0
-332 -42 -49 0
-332 -42 -50 0
-332 -42 -51 0
-332 -64 -69 0
-332 -64 -70 0
-332 -64 -71 0
-332 -64 -72 0
-332 -74 -78 0
-332 -74 -79 0
-332 -74 -80 0
-332 -74 -81 0
-332 94 0
-332 100 0
-333 63 0
-333 -54 -59 0
-333 -43 -48 0
-333 -43 -49 0
-333 -43 -50 0
-333 -43 -51 0
-333 -64 -69 0
-333 -64 -70 0
-333 -64 -71 0
-333 -64 -72 0
-333 -65 -69 0
-333 -65 -70 0
-333 -65 -71 0
-333 -65 -72 0
-333 -74 -78 0
-333 -74 -79 0
-333 -74 -80 0
-333 -74 -81 0
-333 -75 -78 0
-333 -75 -79 0
-333 -75 -80 0
-333 -75 -81 0
-333 95 0
-333 100 0
-334 63 0
-334 -55 -59 0
-334 -44 -48 0
-334 -44 -49 0
-334 -44 -50 0
-334 -44 -51 0
-334 -65 -69 0
-334 -65 -70 0
-334 -65 -71 0
-334 -65 -72 0
-334 -66 -69 0
-334 -66 -70 0
-334 -66 -71 0
-334 -66 -72 0
-334 -74 -78 0
-334 -74 -79 0
-334 -74 -80 0
-334 -74 -81 0
-334 -75 -78 0
-334 -75 -79 0
-334 -75 -80 0
-334 -75 -81 0
-334 -76 -78 0
-334 -76 -79 0
-334 -76 -80 0
-334 -76 -81 0
-334 96 0
-334 100 0
-335 63 0
-335 -56 -59 0
-335 -45 -48 0
-335 -45 -49 0
-335 -45 -50 0
-335 -45 -51 0
-335 -66 -69 0
-335 -66 -70 0
-335 -66 -71 0
-335 -66 -72 0
-335 -67 -69 0
-335 -67 -70 0
-335 -67 -71 0
-335 -67 -72 0
-335 -75 -78 0
-335 -75 -79 0
-335 -75 -80 0
-335 -75 -81 0
-335 -76 -78 0
-335 -76 -79 0
-335 -76 -80 0
-335 -76 -81 0
-335 -77 -78 0
-335 -77 -79 0
-335 -77 -80 0
-335 -77 -81 0
-335 97 0
-335 100 0
-336 63 0
-336 -57 -59 0
-336 -46 -48 0
-336 -46 -49 0
-336 -46 -50 0
-336 -46 -51 0
-336 -67 -69 0
-336 -67 -70 0
-336 -67 -71 0
-336 -67 -72 0
-336 -68 -69 0
-336 -68 -70 0
-336 -68 -71 0
-336 -68 -72 0
-336 -76 -78 0
-336 -76 -79 0
-336 -76 -80 0
-336 -76 -81 0
-336 -77 -78 0
-336 -77 -79 0
-336 -77 -80 0
-336 -77 -81 0
-336 98 0
-336 100 0
-337 63 0
-337 -58 -59 0
-337 -47 -48 0
-337 -47 -49 0
-337 -47 -50 0
-337 -47 -51 0
-337 -68 -69 0
-337 -68 -70 0
-337 -68 -71 0
-337 -68 -72 0
-337 -77 -78 0
-337 -77 -79 0
-337 -77 -80 0
-337 -77 -81 0
-337 99 0
-337 100 0
-338 73 0
-338 -51 0
-338 -64 -48 -70 0
-338 -64 -49 -71 0
-338 -64 -50 -72 0
-338 -44 0
-338 -45 0
-338 -46 0
-338 -47 0
-338 -48 -53 -60 0
-338 -48 -53 -61 0
-338 -48 -53 -62 0
-338 -49 -53 -61 0
-338 -49 -53 -62 0
-338 -50 -53 -62 0
-338 -48 -54 -60 0
-338 -48 -54 -61 0
-338 -48 -54 -62 0
-338 -49 -54 -61 0
-338 -49 -54 -62 0
-338 -50 -54 -62 0
-338 -48 -74 -79 0
-338 -48 -74 -80 0
-338 -48 -74 -81 0
-338 -49 -74 -80 0
-338 -49 -74 -81 0
-338 -50 -74 -81 0
-338 -48 -75 -79 0
-338 -48 -75 -80 0
-338 -48 -75 -81 0
-338 -49 -75 -80 0
-338 -49 -75 -81 0
-338 -50 -75 -81 0
-338 105 0
-338 -48 111 0
-338 -49 112 0
-338 -50 113 0
-338 -93 0
-339 73 0
-339 -51 0
-339 -65 -48 -70 0
-339 -65 -49 -71 0
-339 -65 -50 -72 0
-339 -42 0
-339 -45 0
-339 -46 0
-339 -47 0
-339 -48 -54 -60 0
-339 -48 -54 -61 0
-339 -48 -54 -62 0
-339 -49 -54 -61 0
-339 -49 -54 -62 0
-339 -50 -54 -62 0
-339 -48 -55 -60 0
-339 -48 -55 -61 0
-339 -48 -55 -62 0
-339 -49 -55 -61 0
-339 -49 -55 -62 0
-339 -50 -55 -62 0
-339 -48 -74 -79 0
-339 -48 -74 -80 0
-339 -48 -74 -81 0
-339 -49 -74 -80 0
-339 -49 -74 -81 0
-339 -50 -74 -81 0
-339 -48 -75 -79 0
-339 -48 -75 -80 0
-339 -48 -75 -81 0
-339 -49 -75 -80 0
-339 -49 -75 -81 0
-339 -50 -75 -81 0
-339 -48 -76 -79 0
-339 -48 -76 -80 0
-339 -48 -76 -81 0
-339 -49 -76 -80 0
-339 -49 -76 -81 0
-339 -50 -76 -81 0
-339 106 0
-339 -48 111 0
-339 -49 112 0
-339 -50 113 0
-339 -93 0
-340 73 0
-340 -51 0
-340 -66 -48 -70 0
-340 -66 -49 -71 0
-340 -66 -50 -72 0
-340 -42 0
-340 -43 0
-340 -46 0
-340 -47 0
-340 -48 -55 -60 0
-340 -48 -55 -61 0
-340 -48 -55 -62 0
-340 -49 -55 -61 0
-340 -49 -55 -62 0
-340 -50 -55 -62 0
-340 -48 -56 -60 0
-340 -48 -56 -61 0
-340 -48 -56 -62 0
-340 -49 -56 -61 0
-340 -49 -56 -62 0
-340 -50 -56 -62 0
-340 -48 -74 -79 0
-340 -48 -74 -80 0
-340 -48 -74 -81 0
-340 -49 -74 -80 0
-340 -49 -74 -81 0
-340 -50 -74 -81 0
-340 -48 -75 -79 0
-340 -48 -75 -80 0
-340 -48 -75 -81 0
-340 -49 -75 -80 0
-340 -49 -75 -81 0
-340 -50 -75 -81 0
-340 -48 -76 -79 0
-340 -48 -76 -80 0
-340 -48 -76 -81 0
-340 -49 -76 -80 0
-340 -49 -76 -81 0
-340 -50 -76 -81 0
-340 -48 -77 -79 0
-340 -48 -77 -80 0
-340 -48 -77 -81 0
-340 -49 -77 -80 0
-340 -49 -77 -81 0
-340 -50 -77 -81 0
-340 107 0
-340 -48 111 0
-340 -49 112 0
-340 -50 113 0
-340 -93 0
-341 73 0
-341 -51 0
-341 -67 -48 -70 0
-341 -67 -49 -71 0
-341 -67 -50 -72 0
-341 -42 0
-341 -43 0
-341 -44 0
-341 -47 0
-341 -48 -56 -60 0
-341 -48 -56 -61 0
-341 -48 -56 -62 0
-341 -49 -56 -61 0
-341 -49 -56 -62 0
-341 -50 -56 -62 0
-341 -48 -57 -60 0
-341 -48 -57 -61 0
-341 -48 -57 -62 0
-341 -49 -57 -61 0
-341 -49 -57 -62 0
-341 -50 -57 -62 0
-341 -48 -75 -79 0
-341 -48 -75 -80 0
-341 -48 -75 -81 0
-341 -49 -75 -80 0
-341 -49 -75 -81 0
-341 -50 -75 -81 0
-341 -48 -76 -79 0
-341 -48 -76 -80 0
-341 -48 -76 -81 0
-341 -49 -76 -80 0
-341 -49 -76 -81 0
-341 -50 -76 -81 0
-341 -48 -77 -79 0
-341 -48 -77 -80 0
-341 -48 -77 -81 0
-341 -49 -77 -80 0
-341 -49 -77 -81 0
-341 -50 -77 -81 0
-341 108 0
-341 -48 111 0
-341 -49 112 0
-341 -50 113 0
-341 -93 0
-342 73 0
-342 -51 0
-342 -68 -48 -70 0
-342 -68 -49 -71 0
-342 -68 -50 -72 0
-342 -42 0
-342 -43 0
-342 -44 0
-342 -45 0
-342 -48 -57 -60 0
-342 -48 -57 -61 0
-342 -48 -57 -62 0
-342 -49 -57 -61 0
-342 -49 -57 -62 0
-342 -50 -57 -62 0
-342 -48 -58 -60 0
-342 -48 -58 -61 0
-342 -48 -58 -62 0
-342 -49 -58 -61 0
-342 -49 -58 -62 0
-342 -50 -58 -62 0
-342 -48 -76 -79 0
-342 -48 -76 -80 0
-342 -48 -76 -81 0
-342 -49 -76 -80 0
-342 -49 -76 -81 0
-342 -50 -76 -81 0
-342 -48 -77 -79 0
-342 -48 -77 -80 0
-342 -48 -77 -81 0
-342 -49 -77 -80 0
-342 -49 -77 -81 0
-342 -50 -77 -81 0
-342 109 0
-342 -48 111 0
-342 -49 112 0
-342 -50 113 0
-342 -93 0
-343 73 0
-343 -62 0
-343 -64 -59 -70 0
-343 -64 -60 -71 0
-343 -64 -61 -72 0
-343 -55 0
-343 -56 0
-343 -57 0
-343 -58 0
-343 -59 -42 -49 0
-343 -59 -42 -50 0
-343 -59 -42 -51 0
-343 -60 -42 -50 0
-343 -60 -42 -51 0
-343 -61 -42 -51 0
-343 -59 -43 -49 0
-343 -59 -43 -50 0
-343 -59 -43 -51 0
-343 -60 -43 -50 0
-343 -60 -43 -51 0
-343 -61 -43 -51 0
-343 -59 -74 -79 0
-343 -59 -74 -80 0
-343 -59 -74 -81 0
-343 -60 -74 -80 0
-343 -60 -74 -81 0
-343 -61 -74 -81 0
-343 -59 -75 -79 0
-343 -59 -75 -80 0
-343 -59 -75 -81 0
-343 -60 -75 -80 0
-343 -60 -75 -81 0
-343 -61 -75 -81 0
-343 105 0
-343 -59 111 0
-343 -60 112 0
-343 -61 113 0
-343 -104 0
-344 73 0
-344 -62 0
-344 -65 -59 -70 0
-344 -65 -60 -71 0
-344 -65 -61 -72 0
-344 -53 0
-344 -56 0
-344 -57 0
-344 -58 0
-344 -59 -43 -49 0
-344 -59 -43 -50 0
-344 -59 -43 -51 0
-344 -60 -43 -50 0
-344 -60 -43 -51 0
-344 -61 -43 -51 0
-344 -59 -44 -49 0
-344 -59 -44 -50 0
-344 -59 -44 -51 0
-344 -60 -44 -50 0
-344 -60 -44 -51 0
-344 -61 -44 -51 0
-344 -59 -74 -79 0
-344 -59 -74 -80 0
-344 -59 -74 -81 0
-344 -60 -74 -80 0
-344 -60 -74 -81 0
-344 -61 -74 -81 0
-344 -59 -75 -79 0
-344 -59 -75 -80 0
-344 -59 -75 -81 0
-344 -60 -75 -80 0
-344 -60 -75 -81 0
-344 -61 -75 -81 0
-344 -59 -76 -79 0
-344 -59 -76 -80 0
-344 -59 -76 -81 0
-344 -60 -76 -80 0
-344 -60 -76 -81 0
-344 -61 -76 -81 0
-344 106 0
-344 -59 111 0
-344 -60 112 0
-344 -61 113 0
-344 -104 0
-345 73 0
-345 -62 0
-345 -66 -59 -70 0
-345 -66 -60 -71 0
-345 -66 -61 -72 0
-345 -53 0
-345 -54 0
-345 -57 0
-345 -58 0
-345 -59 -44 -49 0
-345 -59 -44 -50 0
-345 -59 -44 -51 0
-345 -60 -44 -50 0
-345 -60 -44 -51 0
-345 -61 -44 -51 0
-345 -59 -45 -49 0
-345 -59 -45 -50 0
-345 -59 -45 -51 0
-345 -60 -45 -50 0
-345 -60 -45 -51 0
-345 -61 -45 -51 0
-345 -59 -74 -79 0
-345 -59 -74 -80 0
-345 -59 -74 -81 0
-345 -60 -74 -80 0
-345 -60 -74 -81 0
-345 -61 -74 -81 0
-345 -59 -75 -79 0
-345 -59 -75 -80 0
-345 -59 -75 -81 0
-345 -60 -75 -80 0
-345 -60 -75 -81 0
-345 -61 -75 -81 0
-345 -59 -76 -79 0
-345 -59 -76 -80 0
-345 -59 -76 -81 0
-345 -60 -76 -80 0
-345 -60 -76 -81 0
-345 -61 -76 -81 0
-345 -59 -77 -79 0
-345 -59 -77 -80 0
-345 -59 -77 -81 0
-345 -60 -77 -80 0
-345 -60 -77 -81 0
-345 -61 -77 -81 0
-345 107 0
-345 -59 111 0
-345 -60 112 0
-345 -61 113 0
-345 -104 0
-346 73 0
-346 -62 0
-346 -67 -59 -70 0
-346 -67 -60 -71 0
-346 -67 -61 -72 0
-346 -53 0
-346 -54 0
-346 -55 0
-346 -58 0
-346 -59 -45 -49 0
-346 -59 -45 -50 0
-346 -59 -45 -51 0
-346 -60 -45 -50 0
-346 -60 -45 -51 0
-346 -61 -45 -51 0
-346 -59 -46 -49 0
-346 -59 -46 -50 0
-346 -59 -46 -51 0
-346 -60 -46 -50 0
-346 -60 -46 -51 0
-346 -61 -46 -51 0
-346 -59 -75 -79 0
-346 -59 -75 -80 0
-346 -59 -75 -81 0
-346 -60 -75 -80 0
-346 -60 -75 -81 0
-346 -61 -75 -81 0
-346 -59 -76 -79 0
-346 -59 -76 -80 0
-346 -59 -76 -81 0
-346 -60 -76 -80 0
-346 -60 -76 -81 0
-346 -61 -76 -81 0
-346 -59 -77 -79 0
-346 -59 -77 -80 0
-346 -59 -77 -81 0
-346 -60 -77 -80 0
-346 -60 -77 -81 0
-346 -61 -77 -81 0
-346 108 0
-346 -59 111 0
-346 -60 112 0
-346 -61 113 0
-346 -104 0
-347 73 0
-347 -62 0
-347 -68 -59 -70 0
-347 -68 -60 -71 0
-347 -68 -61 -72 0
-347 -53 0
-347 -54 0
-347 -55 0
-347 -56 0
-347 -59 -46 -49 0
-347 -59 -46 -50 0
-347 -59 -46 -51 0
-347 -60 -46 -50 0
-347 -60 -46 -51 0
-347 -61 -46 -51 0
-347 -59 -47 -49 0
-347 -59 -47 -50 0
-347 -59 -47 -51 0
-347 -60 -47 -50 0
-347 -60 -47 -51 0
-347 -61 -47 -51 0
-347 -59 -76 -79 0
-347 -59 -76 -80 0
-347 -59 -76 -81 0
-347 -60 -76 -80 0
-347 -60 -76 -81 0
-347 -61 -76 -81 0
-347 -59 -77 -79 0
-347 -59 -77 -80 0
-347 -59 -77 -81 0
-347 -60 -77 -80 0
-347 -60 -77 -81 0
-347 -61 -77 -81 0
-347 109 0
-347 -59 111 0
-347 -60 112 0
-347 -61 113 0
-347 -104 0
-348 73 0
-348 -81 0
-348 -64 -78 -70 0
-348 -64 -79 -71 0
-348 -64 -80 -72 0
-348 -76 0
-348 -77 0
-348 -78 -42 -49 0
-348 -78 -42 -50 0
-348 -78 -42 -51 0
-348 -79 -42 -50 0
-348 -79 -42 -51 0
-348 -80 -42 -51 0
-348 -78 -43 -49 0
-348 -78 -43 -50 0
-348 -78 -43 -51 0
-348 -79 -43 -50 0
-348 -79 -43 -51 0
-348 -80 -43 -51 0
-348 -78 -53 -60 0
-348 -78 -53 -61 0
-348 -78 -53 -62 0
-348 -79 -53 -61 0
-348 -79 -53 -62 0
-348 -80 -53 -62 0
-348 -78 -54 -60 0
-348 -78 -54 -61 0
-348 -78 -54 -62 0
-348 -79 -54 -61 0
-348 -79 -54 -62 0
-348 -80 -54 -62 0
-348 105 0
-348 -78 111 0
-348 -79 112 0
-348 -80 113 0
-348 -123 0
-349 73 0
-349 -81 0
-349 -65 -78 -70 0
-349 -65 -79 -71 0
-349 -65 -80 -72 0
-349 -77 0
-349 -78 -43 -49 0
-349 -78 -43 -50 0
-349 -78 -43 -51 0
-349 -79 -43 -50 0
-349 -79 -43 -51 0
-349 -80 -43 -51 0
-349 -78 -44 -49 0
-349 -78 -44 -50 0
-349 -78 -44 -51 0
-349 -79 -44 -50 0
-349 -79 -44 -51 0
-349 -80 -44 -51 0
-349 -78 -54 -60 0
-349 -78 -54 -61 0
-349 -78 -54 -62 0
-349 -79 -54 -61 0
-349 -79 -54 -62 0
-349 -80 -54 -62 0
-349 -78 -55 -60 0
-349 -78 -55 -61 0
-349 -78 -55 -62 0
-349 -79 -55 -61 0
-349 -79 -55 -62 0
-349 -80 -55 -62 0
-349 106 0
-349 -78 111 0
-349 -79 112 0
-349 -80 113 0
-349 -123 0
-350 73 0
-350 -81 0
-350 -66 -78 -70 0
-350 -66 -79 -71 0
-350 -66 -80 -72 0
-350 -78 -44 -49 0
-350 -78 -44 -50 0
-350 -78 -44 -51 0
-350 -79 -44 -50 0
-350 -79 -44 -51 0
-350 -80 -44 -51 0
-350 -78 -45 -49 0
-350 -78 -45 -50 0
-350 -78 -45 -51 0
-350 -79 -45 -50 0
-350 -79 -45 -51 0
-350 -80 -45 -51 0
-350 -78 -55 -60 0
-350 -78 -55 -61 0
-350 -78 -55 -62 0
-350 -79 -55 -61 0
-350 -79 -55 -62 0
-350 -80 -55 -62 0
-350 -78 -56 -60 0
-350 -78 -56 -61 0
-350 -78 -56 -62 0
-350 -79 -56 -61 0
-350 -79 -56 -62 0
-350 -80 -56 -62 0
-350 107 0
-350 -78 111 0
-350 -79 112 0
-350 -80 113 0
-350 -123 0
-351 73 0
-351 -81 0
-351 -67 -78 -70 0
-351 -67 -79 -71 0
-351 -67 -80 -72 0
-351 -74 0
-351 -78 -45 -49 0
-351 -78 -45 -50 0
-351 -78 -45 -51 0
-351 -79 -45 -50 0
-351 -79 -45 -51 0
-351 -80 -45 -51 0
-351 -78 -46 -49 0
-351 -78 -46 -50 0
-351 -78 -46 -51 0
-351 -79 -46 -50 0
-351 -79 -46 -51 0
-351 -80 -46 -51 0
-351 -78 -56 -60 0
-351 -78 -56 -61 0
-351 -78 -56 -62 0
-351 -79 -56 -61 0
-351 -79 -56 -62 0
-351 -80 -56 -62 0
-351 -78 -57 -60 0
-351 -78 -57 -61 0
-351 -78 -57 -62 0
-351 -79 -57 -61 0
-351 -79 -57 -62 0
-351 -80 -57 -62 0
-351 108 0
-351 -78 111 0
-351 -79 112 0
-351 -80 113 0
-351 -123 0
-352 73 0
-352 -81 0
-352 -68 -78 -70 0
-352 -68 -79 -71 0
-352 -68 -80 -72 0
-352 -74 0
-352 -75 0
-352 -78 -46 -49 0
-352 -78 -46 -50 0
-352 -78 -46 -51 0
-352 -79 -46 -50 0
-352 -79 -46 -51 0
-352 -80 -46 -51 0
-352 -78 -47 -49 0
-352 -78 -47 -50 0
-352 -78 -47 -51 0
-352 -79 -47 -50 0
-352 -79 -47 -51 0
-352 -80 -47 -51 0
-352 -78 -57 -60 0
-352 -78 -57 -61 0
-352 -78 -57 -62 0
-352 -79 -57 -61 0
-352 -79 -57 -62 0
-352 -80 -57 -62 0
-352 -78 -58 -60 0
-352 -78 -58 -61 0
-352 -78 -58 -62 0
-352 -79 -58 -61 0
-352 -79 -58 -62 0
-352 -80 -58 -62 0
-352 109 0
-352 -78 111 0
-352 -79 112 0
-352 -80 113 0
-352 -123 0
-353 73 0
-353 -64 -69 0
-353 -42 -48 0
-353 -42 -49 0
-353 -42 -50 0
-353 -42 -51 0
-353 -43 -48 0
-353 -43 -49 0
-353 -43 -50 0
-353 -43 -51 0
-353 -53 -59 0
-353 -53 -60 0
-353 -53 -61 0
-353 -53 -62 0
-353 -54 -59 0
-353 -54 -60 0
-353 -54 -61 0
-353 -54 -62 0
-353 -74 -78 0
-353 -74 -79 0
-353 -74 -80 0
-353 -74 -81 0
-353 -75 -78 0
-353 -75 -79 0
-353 -75 -80 0
-353 -75 -81 0
-353 105 0
-353 110 0
-354 73 0
-354 -65 -69 0
-354 -43 -48 0
-354 -43 -49 0
-354 -43 -50 0
-354 -43 -51 0
-354 -44 -48 0
-354 -44 -49 0
-354 -44 -50 0
-354 -44 -51 0
-354 -54 -59 0
-354 -54 -60 0
-354 -54 -61 0
-354 -54 -62 0
-354 -55 -59 0
-354 -55 -60 0
-354 -55 -61 0
-354 -55 -62 0
-354 -74 -78 0
-354 -74 -79 0
-354 -74 -80 0
-354 -74 -81 0
-354 -75 -78 0
-354 -75 -79 0
-354 -75 -80 0
-354 -75 -81 0
-354 -76 -78 0
-354 -76 -79 0
-354 -76 -80 0
-354 -76 -81 0
-354 106 0
-354 110 0
-355 73 0
-355 -66 -69 0
-355 -44 -48 0
-355 -44 -49 0
-355 -44 -50 0
-355 -44 -51 0
-355 -45 -48 0
-355 -45 -49 0
-355 -45 -50 0
-355 -45 -51 0
-355 -55 -59 0
-355 -55 -60 0
-355 -55 -61 0
-355 -55 -62 0
-355 -56 -59 0
-355 -56 -60 0
-355 -56 -61 0
-355 -56 -62 0
-355 -74 -78 0
-355 -74 -79 0
-355 -74 -80 0
-355 -74 -81 0
-355 -75 -78 0
-355 -75 -79 0
-355 -75 -80 0
-355 -75 -81 0
-355 -76 -78 0
-355 -76 -79 0
-355 -76 -80 0
-355 -76 -81 0
-355 -77 -78 0
-355 -77 -79 0
-355 -77 -80 0
-355 -77 -81 0
-355 107 0
-355 110 0
-356 73 0
-356 -67 -69 0
-356 -45 -48 0
-356 -45 -49 0
-356 -45 -50 0
-356 -45 -51 0
-356 -46 -48 0
-356 -46 -49 0
-356 -46 -50 0
-356 -46 -51 0
-356 -56 -59 0
-356 -56 -60 0
-356 -56 -61 0
-356 -56 -62 0
-356 -57 -59 0
-356 -57 -60 0
-356 -57 -61 0
-356 -57 -62 0
-356 -75 -78 0
-356 -75 -79 0
-356 -75 -80 0
-356 -75 -81 0
-356 -76 -78 0
-356 -76 -79 0
-356 -76 -80 0
-356 -76 -81 0
-356 -77 -78 0
-356 -77 -79 0
-356 -77 -80 0
-356 -77 -81 0
-356 108 0
-356 110 0
-357 73 0
-357 -68 -69 0
-357 -46 -48 0
-357 -46 -49 0
-357 -46 -50 0
-357 -46 -51 0
-357 -47 -48 0
-357 -47 -49 0
-357 -47 -50 0
-357 -47 -51 0
-357 -57 -59 0
-357 -57 -60 0
-357 -57 -61 0
-357 -57 -62 0
-357 -58 -59 0
-357 -58 -60 0
-357 -58 -61 0
-357 -58 -62 0
-357 -76 -78 0
-357 -76 -79 0
-357 -76 -80 0
-357 -76 -81 0
-357 -77 -78 0
-357 -77 -79 0
-357 -77 -80 0
-357 -77 -81 0
-357 109 0
-357 110 0
-358 82 0
-358 -51 0
-358 -74 -48 -79 0
-358 -74 -49 -80 0
-358 -74 -50 -81 0
-358 -45 0
-358 -46 0
-358 -47 0
-358 -48 -53 -60 0
-358 -48 -53 -61 0
-358 -48 -53 -62 0
-358 -49 -53 -61 0
-358 -49 -53 -62 0
-358 -50 -53 -62 0
-358 -48 -54 -60 0
-358 -48 -54 -61 0
-358 -48 -54 -62 0
-358 -49 -54 -61 0
-358 -49 -54 -62 0
-358 -50 -54 -62 0
-358 -48 -55 -60 0
-358 -48 -55 -61 0
-358 -48 -55 -62 0
-358 -49 -55 -61 0
-358 -49 -55 -62 0
-358 -50 -55 -62 0
-358 -48 -64 -70 0
-358 -48 -64 -71 0
-358 -48 -64 -72 0
-358 -49 -64 -71 0
-358 -49 -64 -72 0
-358 -50 -64 -72 0
-358 -48 -65 -70 0
-358 -48 -65 -71 0
-358 -48 -65 -72 0
-358 -49 -65 -71 0
-358 -49 -65 -72 0
-358 -50 -65 -72 0
-358 -48 -66 -70 0
-358 -48 -66 -71 0
-358 -48 -66 -72 0
-358 -49 -66 -71 0
-358 -49 -66 -72 0
-358 -50 -66 -72 0
-358 115 0
-358 -48 120 0
-358 -49 121 0
-358 -50 122 0
-358 -93 0
-359 82 0
-359 -51 0
-359 -75 -48 -79 0
-359 -75 -49 -80 0
-359 -75 -50 -81 0
-359 -42 0
-359 -46 0
-359 -47 0
-359 -48 -54 -60 0
-359 -48 -54 -61 0
-359 -48 -54 -62 0
-359 -49 -54 -61 0
-359 -49 -54 -62 0
-359 -50 -54 -62 0
-359 -48 -55 -60 0
-359 -48 -55 -61 0
-359 -48 -55 -62 0
-359 -49 -55 -61 0
-359 -49 -55 -62 0
-359 -50 -55 -62 0
-359 -48 -56 -60 0
-359 -48 -56 -61 0
-359 -48 -56 -62 0
-359 -49 -56 -61 0
-359 -49 -56 -62 0
-359 -50 -56 -62 0
-359 -48 -64 -70 0
-359 -48 -64 -71 0
-359 -48 -64 -72 0
-359 -49 -64 -71 0
-359 -49 -64 -72 0
-359 -50 -64 -72 0
-359 -48 -65 -70 0
-359 -48 -65 -71 0
-359 -48 -65 -72 0
-359 -49 -65 -71 0
-359 -49 -65 -72 0
-359 -50 -65 -72 0
-359 -48 -66 -70 0
-359 -48 -66 -71 0
-359 -48 -66 -72 0
-359 -49 -66 -71 0
-359 -49 -66 -72 0
-359 -50 -66 -72 0
-359 -48 -67 -70 0
-359 -48 -67 -71 0
-359 -48 -67 -72 0
-359 -49 -67 -71 0
-359 -49 -67 -72 0
-359 -50 -67 -72 0
-359 116 0
-359 -48 120 0
-359 -49 121 0
-359 -50 122 0
-359 -93 0
-360 82 0
-360 -51 0
-360 -76 -48 -79 0
-360 -76 -49 -80 0
-360 -76 -50 -81 0
-360 -42 0
-360 -43 0
-360 -47 0
-360 -48 -55 -60 0
-360 -48 -55 -61 0
-360 -48 -55 -62 0
-360 -49 -55 -61 0
-360 -49 -55 -62 0
-360 -50 -55 -62 0
-360 -48 -56 -60 0
-360 -48 -56 -61 0
-360 -48 -56 -62 0
-360 -49 -56 -61 0
-360 -49 -56 -62 0
-360 -50 -56 -62 0
-360 -48 -57 -60 0
-360 -48 -57 -61 0
-360 -48 -57 -62 0
-360 -49 -57 -61 0
-360 -49 -57 -62 0
-360 -50 -57 -62 0
-360 -48 -65 -70 0
-360 -48 -65 -71 0
-360 -48 -65 -72 0
-360 -49 -65 -71 0
-360 -49 -65 -72 0
-360 -50 -65 -72 0
-360 -48 -66 -70 0
-360 -48 -66 -71 0
-360 -48 -66 -72 0
-360 -49 -66 -71 0
-360 -49 -66 -72 0
-360 -50 -66 -72 0
-360 -48 -67 -70 0
-360 -48 -67 -71 0
-360 -48 -67 -72 0
-360 -49 -67 -71 0
-360 -49 -67 -72 0
-360 -50 -67 -72 0
-360 -48 -68 -70 0
-360 -48 -68 -71 0
-360 -48 -68 -72 0
-360 -49 -68 -71 0
-360 -49 -68 -72 0
-360 -50 -68 -72 0
-360 117 0
-360 -48 120 0
-360 -49 121 0
-360 -50 122 0
-360 -93 0
-361 82 0
-361 -51 0
-361 -77 -48 -79 0
-361 -77 -49 -80 0
-361 -77 -50 -81 0
-361 -42 0
-361 -43 0
-361 -44 0
-361 -48 -56 -60 0
-361 -48 -56 -61 0
-361 -48 -56 -62 0
-361 -49 -56 -61 0
-361 -49 -56 -62 0
-361 -50 -56 -62 0
-361 -48 -57 -60 0
-361 -48 -57 -61 0
-361 -48 -57 -62 0
-361 -49 -57 -61 0
-361 -49 -57 -62 0
-361 -50 -57 -62 0
-361 -48 -58 -60 0
-361 -48 -58 -61 0
-361 -48 -58 -62 0
-361 -49 -58 -61 0
-361 -49 -58 -62 0
-361 -50 -58 -62 0
-361 -48 -66 -70 0
-361 -48 -66 -71 0
-361 -48 -66 -72 0
-361 -49 -66 -71 0
-361 -49 -66 -72 0
-361 -50 -66 -72 0
-361 -48 -67 -70 0
-361 -48 -67 -71 0
-361 -48 -67 -72 0
-361 -49 -67 -71 0
-361 -49 -67 -72 0
-361 -50 -67 -72 0
-361 -48 -68 -70 0
-361 -48 -68 -71 0
-361 -48 -68 -72 0
-361 -49 -68 -71 0
-361 -49 -68 -72 0
-361 -50 -68 -72 0
-361 118 0
-361 -48 120 0
-361 -49 121 0
-361 -50 122 0
-361 -93 0
-362 82 0
-362 -62 0
-362 -74 -59 -79 0
-362 -74 -60 -80 0
-362 -74 -61 -81 0
-362 -56 0
-362 -57 0
-362 -58 0
-362 -59 -42 -49 0
-362 -59 -42 -50 0
-362 -59 -42 -51 0
-362 -60 -42 -50 0
-362 -60 -42 -51 0
-362 -61 -42 -51 0
-362 -59 -43 -49 0
-362 -59 -43 -50 0
-362 -59 -43 -51 0
-362 -60 -43 -50 0
-362 -60 -43 -51 0
-362 -61 -43 -51 0
-362 -59 -44 -49 0
-362 -59 -44 -50 0
-362 -59 -44 -51 0
-362 -60 -44 -50 0
-362 -60 -44 -51 0
-362 -61 -44 -51 0
-362 -59 -64 -70 0
-362 -59 -64 -71 0
-362 -59 -64 -72 0
-362 -60 -64 -71 0
-362 -60 -64 -72 0
-362 -61 -64 -72 0
-362 -59 -65 -70 0
-362 -59 -65 -71 0
-362 -59 -65 -72 0
-362 -60 -65 -71 0
-362 -60 -65 -72 0
-362 -61 -65 -72 0
-362 -59 -66 -70 0
-362 -59 -66 -71 0
-362 -59 -66 -72 0
-362 -60 -66 -71 0
-362 -60 -66 -72 0
-362 -61 -66 -72 0
-362 115 0
-362 -59 120 0
-362 -60 121 0
-362 -61 122 0
-362 -104 0
-363 82 0
-363 -62 0
-363 -75 -59 -79 0
-363 -75 -60 -80 0
-363 -75 -61 -81 0
-363 -53 0
-363 -57 0
-363 -58 0
-363 -59 -43 -49 0
-363 -59 -43 -50 0
-363 -59 -43 -51 0
-363 -60 -43 -50 0
-363 -60 -43 -51 0
-363 -61 -43 -51 0
-363 -59 -44 -49 0
-363 -59 -44 -50 0
-363 -59 -44 -51 0
-363 -60 -44 -50 0
-363 -60 -44 -51 0
-363 -61 -44 -51 0
-363 -59 -45 -49 0
-363 -59 -45 -50 0
-363 -59 -45 -51 0
-363 -60 -45 -50 0
-363 -60 -45 -51 0
-363 -61 -45 -51 0
-363 -59 -64 -70 0
-363 -59 -64 -71 0
-363 -59 -64 -72 0
-363 -60 -64 -71 0
-363 -60 -64 -72 0
-363 -61 -64 -72 0
-363 -59 -65 -70 0
-363 -59 -65 -71 0
-363 -59 -65 -72 0
-363 -60 -65 -71 0
-363 -60 -65 -72 0
-363 -61 -65 -72 0
-363 -59 -66 -70 0
-363 -59 -66 -71 0
-363 -59 -66 -72 0
-363 -60 -66 -71 0
-363 -60 -66 -72 0
-363 -61 -66 -72 0
-363 -59 -67 -70 0
-363 -59 -67 -71 0
-363 -59 -67 -72 0
-363 -60 -67 -71 0
-363 -60 -67 -72 0
-363 -61 -67 -72 0
-363 116 0
-363 -59 120 0
-363 -60 121 0
-363 -61 122 0
-363 -104 0
-364 82 0
-364 -62 0
-364 -76 -59 -79 0
-364 -76 -60 -80 0
-364 -76 -61 -81 0
-364 -53 0
-364 -54 0
-364 -58 0
-364 -59 -44 -49 0
-364 -59 -44 -50 0
-364 -59 -44 -51 0
-364 -60 -44 -50 0
-364 -60 -44 -51 0
-364 -61 -44 -51 0
-364 -59 -45 -49 0
-364 -59 -45 -50 0
-364 -59 -45 -51 0
-364 -60 -45 -50 0
-364 -60 -45 -51 0
-364 -61 -45 -51 0
-364 -59 -46 -49 0
-364 -59 -46 -50 0
-364 -59 -46 -51 0
-364 -60 -46 -50 0
-364 -60 -46 -51 0
-364 -61 -46 -51 0
-364 -59 -65 -70 0
-364 -59 -65 -71 0
-364 -59 -65 -72 0
-364 -60 -65 -71 0
-364 -60 -65 -72 0
-364 -61 -65 -72 0
-364 -59 -66 -70 0
-364 -59 -66 -71 0
-364 -59 -66 -72 0
-364 -60 -66 -71 0
-364 -60 -66 -72 0
-364 -61 -66 -72 0
-364 -59 -67 -70 0
-364 -59 -67 -71 0
-364 -59 -67 -72 0
-364 -60 -67 -71 0
-364 -60 -67 -72 0
-364 -61 -67 -72 0
-364 -59 -68 -70 0
-364 -59 -68 -71 0
-364 -59 -68 -72 0
-364 -60 -68 -71 0
-364 -60 -68 -72 0
-364 -61 -68 -72 0
-364 117 0
-364 -59 120 0
-364 -60 121 0
-364 -61 122 0
-364 -104 0
-365 82 0
-365 -62 0
-365 -77 -59 -79 0
-365 -77 -60 -80 0
-365 -77 -61 -81 0
-365 -53 0
-365 -54 0
-365 -55 0
-365 -59 -45 -49 0
-365 -59 -45 -50 0
-365 -59 -45 -51 0
-365 -60 -45 -50 0
-365 -60 -45 -51 0
-365 -61 -45 -51 0
-365 -59 -46 -49 0
-365 -59 -46 -50 0
-365 -59 -46 -51 0
-365 -60 -46 -50 0
-365 -60 -46 -51 0
-365 -61 -46 -51 0
-365 -59 -47 -49 0
-365 -59 -47 -50 0
-365 -59 -47 -51 0
-365 -60 -47 -50 0
-365 -60 -47 -51 0
-365 -61 -47 -51 0
-365 -59 -66 -70 0
-365 -59 -66 -71 0
-365 -59 -66 -72 0
-365 -60 -66 -71 0
-365 -60 -66 -72 0
-365 -61 -66 -72 0
-365 -59 -67 -70 0
-365 -59 -67 -71 0
-365 -59 -67 -72 0
-365 -60 -67 -71 0
-365 -60 -67 -72 0
-365 -61 -67 -72 0
-365 -59 -68 -70 0
-365 -59 -68 -71 0
-365 -59 -68 -72 0
-365 -60 -68 -71 0
-365 -60 -68 -72 0
-365 -61 -68 -72 0
-365 118 0
-365 -59 120 0
-365 -60 121 0
-365 -61 122 0
-365 -104 0
-366 82 0
-366 -72 0
-366 -74 -69 -79 0
-366 -74 -70 -80 0
-366 -74 -71 -81 0
-366 -67 0
-366 -68 0
-366 -69 -42 -49 0
-366 -69 -42 -50 0
-366 -69 -42 -51 0
-366 -70 -42 -50 0
-366 -70 -42 -51 0
-366 -71 -42 -51 0
-366 -69 -43 -49 0
-366 -69 -43 -50 0
-366 -69 -43 -51 0
-366 -70 -43 -50 0
-366 -70 -43 -51 0
-366 -71 -43 -51 0
-366 -69 -44 -49 0
-366 -69 -44 -50 0
-366 -69 -44 -51 0
-366 -70 -44 -50 0
-366 -70 -44 -51 0
-366 -71 -44 -51 0
-366 -69 -53 -60 0
-366 -69 -53 -61 0
-366 -69 -53 -62 0
-366 -70 -53 -61 0
-366 -70 -53 -62 0
-366 -71 -53 -62 0
-366 -69 -54 -60 0
-366 -69 -54 -61 0
-366 -69 -54 -62 0
-366 -70 -54 -61 0
-366 -70 -54 -62 0
-366 -71 -54 -62 0
-366 -69 -55 -60 0
-366 -69 -55 -61 0
-366 -69 -55 -62 0
-366 -70 -55 -61 0
-366 -70 -55 -62 0
-366 -71 -55 -62 0
-366 115 0
-366 -69 120 0
-366 -70 121 0
-366 -71 122 0
-366 -114 0
-367 82 0
-367 -72 0
-367 -75 -69 -79 0
-367 -75 -70 -80 0
-367 -75 -71 -81 0
-367 -68 0
-367 -69 -43 -49 0
-367 -69 -43 -50 0
-367 -69 -43 -51 0
-367 -70 -43 -50 0
-367 -70 -43 -51 0
-367 -71 -43 -51 0
-367 -69 -44 -49 0
-367 -69 -44 -50 0
-367 -69 -44 -51 0
-367 -70 -44 -50 0
-367 -70 -44 -51 0
-367 -71 -44 -51 0
-367 -69 -45 -49 0
-367 -69 -45 -50 0
-367 -69 -45 -51 0
-367 -70 -45 -50 0
-367 -70 -45 -51 0
-367 -71 -45 -51 0
-367 -69 -54 -60 0
-367 -69 -54 -61 0
-367 -69 -54 -62 0
-367 -70 -54 -61 0
-367 -70 -54 -62 0
-367 -71 -54 -62 0
-367 -69 -55 -60 0
-367 -69 -55 -61 0
-367 -69 -55 -62 0
-367 -70 -55 -61 0
-367 -70 -55 -62 0
-367 -71 -55 -62 0
-367 -69 -56 -60 0
-367 -69 -56 -61 0
-367 -69 -56 -62 0
-367 -70 -56 -61 0
-367 -70 -56 -62 0
-367 -71 -56 -62 0
-367 116 0
-367 -69 120 0
-367 -70 121 0
-367 -71 122 0
-367 -114 0
-368 82 0
-368 -72 0
-368 -76 -69 -79 0
-368 -76 -70 -80 0
-368 -76 -71 -81 0
-368 -64 0
-368 -69 -44 -49 0
-368 -69 -44 -50 0
-368 -69 -44 -51 0
-368 -70 -44 -50 0
-368 -70 -44 -51 0
-368 -71 -44 -51 0
-368 -69 -45 -49 0
-368 -69 -45 -50 0
-368 -69 -45 -51 0
-368 -70 -45 -50 0
-368 -70 -45 -51 0
-368 -71 -45 -51 0
-368 -69 -46 -49 0
-368 -69 -46 -50 0
-368 -69 -46 -51 0
-368 -70 -46 -50 0
-368 -70 -46 -51 0
-368 -71 -46 -51 0
-368 -69 -55 -60 0
-368 -69 -55 -61 0
-368 -69 -55 -62 0
-368 -70 -55 -61 0
-368 -70 -55 -62 0
-368 -71 -55 -62 0
-368 -69 -56 -60 0
-368 -69 -56 -61 0
-368 -69 -56 -62 0
-368 -70 -56 -61 0
-368 -70 -56 -62 0
-368 -71 -56 -62 0
-368 -69 -57 -60 0
-368 -69 -57 -61 0
-368 -69 -57 -62 0
-368 -70 -57 -61 0
-368 -70 -57 -62 0
-368 -71 -57 -62 0
-368 117 0
-368 -69 120 0
-368 -70 121 0
-368 -71 122 0
-368 -114 0
-369 82 0
-369 -72 0
-369 -77 -69 -79 0
-369 -77 -70 -80 0
-369 -77 -71 -81 0
-369 -64 0
-369 -65 0
-369 -69 -45 -49 0
-369 -69 -45 -50 0
-369 -69 -45 -51 0
-369 -70 -45 -50 0
-369 -70 -45 -51 0
-369 -71 -45 -51 0
-369 -69 -46 -49 0
-369 -69 -46 -50 0
-369 -69 -46 -51 0
-369 -70 -46 -50 0
-369 -70 -46 -51 0
-369 -71 -46 -51 0
-369 -69 -47 -49 0
-369 -69 -47 -50 0
-369 -69 -47 -51 0
-369 -70 -47 -50 0
-369 -70 -47 -51 0
-369 -71 -47 -51 0
-369 -69 -56 -60 0
-369 -69 -56 -61 0
-369 -69 -56 -62 0
-369 -70 -56 -61 0
-369 -70 -56 -62 0
-369 -71 -56 -62 0
-369 -69 -57 -60 0
-369 -69 -57 -61 0
-369 -69 -57 -62 0
-369 -70 -57 -61 0
-369 -70 -57 -62 0
-369 -71 -57 -62 0
-369 -69 -58 -60 0
-369 -69 -58 -61 0
-369 -69 -58 -62 0
-369 -70 -58 -61 0
-369 -70 -58 -62 0
-369 -71 -58 -62 0
-369 118 0
-369 -69 120 0
-369 -70 121 0
-369 -71 122 0
-369 -114 0
-370 82 0
-370 -74 -78 0
-370 -42 -48 0
-370 -42 -49 0
-370 -42 -50 0
-370 -42 -51 0
-370 -43 -48 0
-370 -43 -49 0
-370 -43 -50 0
-370 -43 -51 0
-370 -44 -48 0
-370 -44 -49 0
-370 -44 -50 0
-370 -44 -51 0
-370 -53 -59 0
-370 -53 -60 0
-370 -53 -61 0
-370 -53 -62 0
-370 -54 -59 0
-370 -54 -60 0
-370 -54 -61 0
-370 -54 -62 0
-370 -55 -59 0
-370 -55 -60 0
-370 -55 -61 0
-370 -55 -62 0
-370 -64 -69 0
-370 -64 -70 0
-370 -64 -71 0
-370 -64 -72 0
-370 -65 -69 0
-370 -65 -70 0
-370 -65 -71 0
-370 -65 -72 0
-370 -66 -69 0
-370 -66 -70 0
-370 -66 -71 0
-370 -66 -72 0
-370 115 0
-370 119 0
-371 82 0
-371 -75 -78 0
-371 -43 -48 0
-371 -43 -49 0
-371 -43 -50 0
-371 -43 -51 0
-371 -44 -48 0
-371 -44 -49 0
-371 -44 -50 0
-371 -44 -51 0
-371 -45 -48 0
-371 -45 -49 0
-371 -45 -50 0
-371 -45 -51 0
-371 -54 -59 0
-371 -54 -60 0
-371 -54 -61 0
-371 -54 -62 0
-371 -55 -59 0
-371 -55 -60 0
-371 -55 -61 0
-371 -55 -62 0
-371 -56 -59 0
-371 -56 -60 0
-371 -56 -61 0
-371 -56 -62 0
-371 -64 -69 0
-371 -64 -70 0
-371 -64 -71 0
-371 -64 -72 0
-371 -65 -69 0
-371 -65 -70 0
-371 -65 -71 0
-371 -65 -72 0
-371 -66 -69 0
-371 -66 -70 0
-371 -66 -71 0
-371 -66 -72 0
-371 -67 -69 0
-371 -67 -70 0
-371 -67 -71 0
-371 -67 -72 0
-371 116 0
-371 119 0
-372 82 0
-372 -76 -78 0
-372 -44 -48 0
-372 -44 -49 0
-372 -44 -50 0
-372 -44 -51 0
-372 -45 -48 0
-372 -45 -49 0
-372 -45 -50 0
-372 -45 -51 0
-372 -46 -48 0
-372 -46 -49 0
-372 -46 -50 0
-372 -46 -51 0
-372 -55 -59 0
-372 -55 -60 0
-372 -55 -61 0
-372 -55 -62 0
-372 -56 -59 0
-372 -56 -60 0
-372 -56 -61 0
-372 -56 -62 0
-372 -57 -59 0
-372 -57 -60 0
-372 -57 -61 0
-372 -57 -62 0
-372 -65 -69 0
-372 -65 -70 0
-372 -65 -71 0
-372 -65 -72 0
-372 -66 -69 0
-372 -66 -70 0
-372 -66 -71 0
-372 -66 -72 0
-372 -67 -69 0
-372 -67 -70 0
-372 -67 -71 0
-372 -67 -72 0
-372 -68 -69 0
-372 -68 -70 0
-372 -68 -71 0
-372 -68 -72 0
-372 117 0
-372 119 0
-373 82 0
-373 -77 -78 0
-373 -45 -48 0
-373 -45 -49 0
-373 -45 -50 0
-373 -45 -51 0
-373 -46 -48 0
-373 -46 -49 0
-373 -46 -50 0
-373 -46 -51 0
-373 -47 -48 0
-373 -47 -49 0
-373 -47 -50 0
-373 -47 -51 0
-373 -56 -59 0
-373 -56 -60 0
-373 -56 -61 0
-373 -56 -62 0
-373 -57 -59 0
-373 -57 -60 0
-373 -57 -61 0
-373 -57 -62 0
-373 -58 -59 0
-373 -58 -60 0
-373 -58 -61 0
-373 -58 -62 0
-373 -66 -69 0
-373 -66 -70 0
-373 -66 -71 0
-373 -66 -72 0
-373 -67 -69 0
-373 -67 -70 0
-373 -67 -71 0
-373 -67 -72 0
-373 -68 -69 0
-373 -68 -70 0
-373 -68 -71 0
-373 -68 -72 0
-373 118 0
-373 119 0
-374 93 0
-374 -103 0
-374 -83 -100 -90 0
-374 -83 -101 -91 0
-374 -83 -102 -92 0
-374 -95 0
-374 -96 0
-374 -97 0
-374 -98 0
-374 -99 0
-374 -100 -105 -111 0
-374 -100 -105 -112 0
-374 -100 -105 -113 0
-374 -101 -105 -112 0
-374 -101 -105 -113 0
-374 -102 -105 -113 0
-374 -100 -115 -120 0
-374 -100 -115 -121 0
-374 -100 -115 -122 0
-374 -101 -115 -121 0
-374 -101 -115 -122 0
-374 -102 -115 -122 0
-374 124 0
-374 -100 131 0
-374 -101 132 0
-374 -102 133 0
-374 -145 0
-375 93 0
-375 -103 0
-375 -84 -100 -90 0
-375 -84 -101 -91 0
-375 -84 -102 -92 0
-375 -94 0
-375 -96 0
-375 -97 0
-375 -98 0
-375 -99 0
-375 -100 -105 -111 0
-375 -100 -105 -112 0
-375 -100 -105 -113 0
-375 -101 -105 -112 0
-375 -101 -105 -113 0
-375 -102 -105 -113 0
-375 -100 -106 -111 0
-375 -100 -106 -112 0
-375 -100 -106 -113 0
-375 -101 -106 -112 0
-375 -101 -106 -113 0
-375 -102 -106 -113 0
-375 -100 -115 -120 0
-375 -100 -115 -121 0
-375 -100 -115 -122 0
-375 -101 -115 -121 0
-375 -101 -115 -122 0
-375 -102 -115 -122 0
-375 -100 -116 -120 0
-375 -100 -116 -121 0
-375 -100 -116 -122 0
-375 -101 -116 -121 0
-375 -101 -116 -122 0
-375 -102 -116 -122 0
-375 125 0
-375 -100 131 0
-375 -101 132 0
-375 -102 133 0
-375 -145 0
-376 93 0
-376 -103 0
-376 -85 -100 -90 0
-376 -85 -101 -91 0
-376 -85 -102 -92 0
-376 -94 0
-376 -95 0
-376 -97 0
-376 -98 0
-376 -99 0
-376 -100 -106 -111 0
-376 -100 -106 -112 0
-376 -100 -106 -113 0
-376 -101 -106 -112 0
-376 -101 -106 -113 0
-376 -102 -106 -113 0
-376 -100 -107 -111 0
-376 -100 -107 -112 0
-376 -100 -107 -113 0
-376 -101 -107 -112 0
-376 -101 -107 -113 0
-376 -102 -107 -113 0
-376 -100 -115 -120 0
-376 -100 -115 -121 0
-376 -100 -115 -122 0
-376 -101 -115 -121 0
-376 -101 -115 -122 0
-376 -102 -115 -122 0
-376 -100 -116 -120 0
-376 -100 -116 -121 0
-376 -100 -116 -122 0
-376 -101 -116 -121 0
-376 -101 -116 -122 0
-376 -102 -116 -122 0
-376 -100 -117 -120 0
-376 -100 -117 -121 0
-376 -100 -117 -122 0
-376 -101 -117 -121 0
-376 -101 -117 -122 0
-376 -102 -117 -122 0
-376 126 0
-376 -100 131 0
-376 -101 132 0
-376 -102 133 0
-376 -145 0
-377 93 0
-377 -103 0
-377 -86 -100 -90 0
-377 -86 -101 -91 0
-377 -86 -102 -92 0
-377 -94 0
-377 -95 0
-377 -96 0
-377 -98 0
-377 -99 0
-377 -100 -107 -111 0
-377 -100 -107 -112 0
-377 -100 -107 -113 0
-377 -101 -107 -112 0
-377 -101 -107 -113 0
-377 -102 -107 -113 0
-377 -100 -108 -111 0
-377 -100 -108 -112 0
-377 -100 -108 -113 0
-377 -101 -108 -112 0
-377 -101 -108 -113 0
-377 -102 -108 -113 0
-377 -100 -116 -120 0
-377 -100 -116 -121 0
-377 -100 -116 -122 0
-377 -101 -116 -121 0
-377 -101 -116 -122 0
-377 -102 -116 -122 0
-377 -100 -117 -120 0
-377 -100 -117 -121 0
-377 -100 -117 -122 0
-377 -101 -117 -121 0
-377 -101 -117 -122 0
-377 -102 -117 -122 0
-377 -100 -118 -120 0
-377 -100 -118 -121 0
-377 -100 -118 -122 0
-377 -101 -118 -121 0
-377 -101 -118 -122 0
-377 -102 -118 -122 0
-377 127 0
-377 -100 131 0
-377 -101 132 0
-377 -102 133 0
-377 -145 0
-378 93 0
-378 -103 0
-378 -87 -100 -90 0
-378 -87 -101 -91 0
-378 -87 -102 -92 0
-378 -94 0
-378 -95 0
-378 -96 0
-378 -97 0
-378 -99 0
-378 -100 -108 -111 0
-378 -100 -108 -112 0
-378 -100 -108 -113 0
-378 -101 -108 -112 0
-378 -101 -108 -113 0
-378 -102 -108 -113 0
-378 -100 -109 -111 0
-378 -100 -109 -112 0
-378 -100 -109 -113 0
-378 -101 -109 -112 0
-378 -101 -109 -113 0
-378 -102 -109 -113 0
-378 -100 -117 -120 0
-378 -100 -117 -121 0
-378 -100 -117 -122 0
-378 -101 -117 -121 0
-378 -101 -117 -122 0
-378 -102 -117 -122 0
-378 -100 -118 -120 0
-378 -100 -118 -121 0
-378 -100 -118 -122 0
-378 -101 -118 -121 0
-378 -101 -118 -122 0
-378 -102 -118 -122 0
-378 128 0
-378 -100 131 0
-378 -101 132 0
-378 -102 133 0
-378 -145 0
-379 93 0
-379 -103 0
-379 -88 -100 -90 0
-379 -88 -101 -91 0
-379 -88 -102 -92 0
-379 -94 0
-379 -95 0
-379 -96 0
-379 -97 0
-379 -98 0
-379 -100 -109 -111 0
-379 -100 -109 -112 0
-379 -100 -109 -113 0
-379 -101 -109 -112 0
-379 -101 -109 -113 0
-379 -102 -109 -113 0
-379 -100 -118 -120 0
-379 -100 -118 -121 0
-379 -100 -118 -122 0
-379 -101 -118 -121 0
-379 -101 -118 -122 0
-379 -102 -118 -122 0
-379 129 0
-379 -100 131 0
-379 -101 132 0
-379 -102 133 0
-379 -145 0
-380 93 0
-380 -113 0
-380 -83 -110 -90 0
-380 -83 -111 -91 0
-380 -83 -112 -92 0
-380 -106 0
-380 -107 0
-380 -108 0
-380 -109 0
-380 -110 -94 -101 0
-380 -110 -94 -102 0
-380 -110 -94 -103 0
-380 -111 -94 -102 0
-380 -111 -94 -103 0
-380 -112 -94 -103 0
-380 -110 -115 -120 0
-380 -110 -115 -121 0
-380 -110 -115 -122 0
-380 -111 -115 -121 0
-380 -111 -115 -122 0
-380 -112 -115 -122 0
-380 124 0
-380 -110 131 0
-380 -111 132 0
-380 -112 133 0
-380 -155 0
-381 93 0
-381 -113 0
-381 -84 -110 -90 0
-381 -84 -111 -91 0
-381 -84 -112 -92 0
-381 -107 0
-381 -108 0
-381 -109 0
-381 -110 -95 -101 0
-381 -110 -95 -102 0
-381 -110 -95 -103 0
-381 -111 -95 -102 0
-381 -111 -95 -103 0
-381 -112 -95 -103 0
-381 -110 -115 -120 0
-381 -110 -115 -121 0
-381 -110 -115 -122 0
-381 -111 -115 -121 0
-381 -111 -115 -122 0
-381 -112 -115 -122 0
-381 -110 -116 -120 0
-381 -110 -116 -121 0
-381 -110 -116 -122 0
-381 -111 -116 -121 0
-381 -111 -116 -122 0
-381 -112 -116 -122 0
-381 125 0
-381 -110 131 0
-381 -111 132 0
-381 -112 133 0
-381 -155 0
-382 93 0
-382 -113 0
-382 -85 -110 -90 0
-382 -85 -111 -91 0
-382 -85 -112 -92 0
-382 -105 0
-382 -108 0
-382 -109 0
-382 -110 -96 -101 0
-382 -110 -96 -102 0
-382 -110 -96 -103 0
-382 -111 -96 -102 0
-382 -111 -96 -103 0
-382 -112 -96 -103 0
-382 -110 -115 -120 0
-382 -110 -115 -121 0
-382 -110 -115 -122 0
-382 -111 -115 -121 0
-382 -111 -115 -122 0
-382 -112 -115 -122 0
-382 -110 -116 -120 0
-382 -110 -116 -121 0
-382 -110 -116 -122 0
-382 -111 -116 -121 0
-382 -111 -116 -122 0
-382 -112 -116 -122 0
-382 -110 -117 -120 0
-382 -110 -117 -121 0
-382 -110 -117 -122 0
-382 -111 -117 -121 0
-382 -111 -117 -122 0
-382 -112 -117 -122 0
-382 126 0
-382 -110 131 0
-382 -111 132 0
-382 -112 133 0
-382 -155 0
-383 93 0
-383 -113 0
-383 -86 -110 -90 0
-383 -86 -111 -91 0
-383 -86 -112 -92 0
-383 -105 0
-383 -106 0
-383 -109 0
-383 -110 -97 -101 0
-383 -110 -97 -102 0
-383 -110 -97 -103 0
-383 -111 -97 -102 0
-383 -111 -97 -103 0
-383 -112 -97 -103 0
-383 -110 -116 -120 0
-383 -110 -116 -121 0
-383 -110 -116 -122 0
-383 -111 -116 -121 0
-383 -111 -116 -122 0
-383 -112 -116 -122 0
-383 -110 -117 -120 0
-383 -110 -117 -121 0
-383 -110 -117 -122 0
-383 -111 -117 -121 0
-383 -111 -117 -122 0
-383 -112 -117 -122 0
-383 -110 -118 -120 0
-383 -110 -118 -121 0
-383 -110 -118 -122 0
-383 -111 -118 -121 0
-383 -111 -118 -122 0
-383 -112 -118 -122 0
-383 127 0
-383 -110 131 0
-383 -111 132 0
-383 -112 133 0
-383 -155 0
-384 93 0
-384 -113 0
-384 -87 -110 -90 0
-384 -87 -111 -91 0
-384 -87 -112 -92 0
-384 -105 0
-384 -106 0
-384 -107 0
-384 -110 -98 -101 0
-384 -110 -98 -102 0
-384 -110 -98 -103 0
-384 -111 -98 -102 0
-384 -111 -98 -103 0
-384 -112 -98 -103 0
-384 -110 -117 -120 0
-384 -110 -117 -121 0
-384 -110 -117 -122 0
-384 -111 -117 -121 0
-384 -111 -117 -122 0
-384 -112 -117 -122 0
-384 -110 -118 -120 0
-384 -110 -118 -121 0
-384 -110 -118 -122 0
-384 -111 -118 -121 0
-384 -111 -118 -122 0
-384 -112 -118 -122 0
-384 128 0
-384 -110 131 0
-384 -111 132 0
-384 -112 133 0
-384 -155 0
-385 93 0
-385 -113 0
-385 -88 -110 -90 0
-385 -88 -111 -91 0
-385 -88 -112 -92 0
-385 -105 0
-385 -106 0
-385 -107 0
-385 -108 0
-385 -110 -99 -101 0
-385 -110 -99 -102 0
-385 -110 -99 -103 0
-385 -111 -99 -102 0
-385 -111 -99 -103 0
-385 -112 -99 -103 0
-385 -110 -118 -120 0
-385 -110 -118 -121 0
-385 -110 -118 -122 0
-385 -111 -118 -121 0
-385 -111 -118 -122 0
-385 -112 -118 -122 0
-385 129 0
-385 -110 131 0
-385 -111 132 0
-385 -112 133 0
-385 -155 0
-386 93 0
-386 -122 0
-386 -83 -119 -90 0
-386 -83 -120 -91 0
-386 -83 -121 -92 0
-386 -116 0
-386 -117 0
-386 -118 0
-386 -119 -94 -101 0
-386 -119 -94 -102 0
-386 -119 -94 -103 0
-386 -120 -94 -102 0
-386 -120 -94 -103 0
-386 -121 -94 -103 0
-386 -119 -105 -111 0
-386 -119 -105 -112 0
-386 -119 -105 -113 0
-386 -120 -105 -112 0
-386 -120 -105 -113 0
-386 -121 -105 -113 0
-386 124 0
-386 -119 131 0
-386 -120 132 0
-386 -121 133 0
-386 -164 0
-387 93 0
-387 -122 0
-387 -84 -119 -90 0
-387 -84 -120 -91 0
-387 -84 -121 -92 0
-387 -117 0
-387 -118 0
-387 -119 -95 -101 0
-387 -119 -95 -102 0
-387 -119 -95 -103 0
-387 -120 -95 -102 0
-387 -120 -95 -103 0
-387 -121 -95 -103 0
-387 -119 -105 -111 0
-387 -119 -105 -112 0
-387 -119 -105 -113 0
-387 -120 -105 -112 0
-387 -120 -105 -113 0
-387 -121 -105 -113 0
-387 -119 -106 -111 0
-387 -119 -106 -112 0
-387 -119 -106 -113 0
-387 -120 -106 -112 0
-387 -120 -106 -113 0
-387 -121 -106 -113 0
-387 125 0
-387 -119 131 0
-387 -120 132 0
-387 -121 133 0
-387 -164 0
-388 93 0
-388 -122 0
-388 -85 -119 -90 0
-388 -85 -120 -91 0
-388 -85 -121 -92 0
-388 -118 0
-388 -119 -96 -101 0
-388 -119 -96 -102 0
-388 -119 -96 -103 0
-388 -120 -96 -102 0
-388 -120 -96 -103 0
-388 -121 -96 -103 0
-388 -119 -106 -111 0
-388 -119 -106 -112 0
-388 -119 -106 -113 0
-388 -120 -106 -112 0
-388 -120 -106 -113 0
-388 -121 -106 -113 0
-388 -119 -107 -111 0
-388 -119 -107 -112 0
-388 -119 -107 -113 0
-388 -120 -107 -112 0
-388 -120 -107 -113 0
-388 -121 -107 -113 0
-388 126 0
-388 -119 131 0
-388 -120 132 0
-388 -121 133 0
-388 -164 0
-389 93 0
-389 -122 0
-389 -86 -119 -90 0
-389 -86 -120 -91 0
-389 -86 -121 -92 0
-389 -115 0
-389 -119 -97 -101 0
-389 -119 -97 -102 0
-389 -119 -97 -103 0
-389 -120 -97 -102 0
-389 -120 -97 -103 0
-389 -121 -97 -103 0
-389 -119 -107 -111 0
-389 -119 -107 -112 0
-389 -119 -107 -113 0
-389 -120 -107 -112 0
-389 -120 -107 -113 0
-389 -121 -107 -113 0
-389 -119 -108 -111 0
-389 -119 -108 -112 0
-389 -119 -108 -113 0
-389 -120 -108 -112 0
-389 -120 -108 -113 0
-389 -121 -108 -113 0
-389 127 0
-389 -119 131 0
-389 -120 132 0
-389 -121 133 0
-389 -164 0
-390 93 0
-390 -122 0
-390 -87 -119 -90 0
-390 -87 -120 -91 0
-390 -87 -121 -92 0
-390 -115 0
-390 -116 0
-390 -119 -98 -101 0
-390 -119 -98 -102 0
-390 -119 -98 -103 0
-390 -120 -98 -102 0
-390 -120 -98 -103 0
-390 -121 -98 -103 0
-390 -119 -108 -111 0
-390 -119 -108 -112 0
-390 -119 -108 -113 0
-390 -120 -108 -112 0
-390 -120 -108 -113 0
-390 -121 -108 -113 0
-390 -119 -109 -111 0
-390 -119 -109 -112 0
-390 -119 -109 -113 0
-390 -120 -109 -112 0
-390 -120 -109 -113 0
-390 -121 -109 -113 0
-390 128 0
-390 -119 131 0
-390 -120 132 0
-390 -121 133 0
-390 -164 0
-391 93 0
-391 -122 0
-391 -88 -119 -90 0
-391 -88 -120 -91 0
-391 -88 -121 -92 0
-391 -115 0
-391 -116 0
-391 -117 0
-391 -119 -99 -101 0
-391 -119 -99 -102 0
-391 -119 -99 -103 0
-391 -120 -99 -102 0
-391 -120 -99 -103 0
-391 -121 -99 -103 0
-391 -119 -109 -111 0
-391 -119 -109 -112 0
-391 -119 -109 -113 0
-391 -120 -109 -112 0
-391 -120 -109 -113 0
-391 -121 -109 -113 0
-391 129 0
-391 -119 131 0
-391 -120 132 0
-391 -121 133 0
-391 -164 0
-392 93 0
-392 -83 -89 0
-392 -94 -100 0
-392 -94 -101 0
-392 -94 -102 0
-392 -94 -103 0
-392 -105 -110 0
-392 -105 -111 0
-392 -105 -112 0
-392 -105 -113 0
-392 -115 -119 0
-392 -115 -120 0
-392 -115 -121 0
-392 -115 -122 0
-392 124 0
-392 130 0
-393 93 0
-393 -84 -89 0
-393 -95 -100 0
-393 -95 -101 0
-393 -95 -102 0
-393 -95 -103 0
-393 -105 -110 0
-393 -105 -111 0
-393 -105 -112 0
-393 -105 -113 0
-393 -106 -110 0
-393 -106 -111 0
-393 -106 -112 0
-393 -106 -113 0
-393 -115 -119 0
-393 -115 -120 0
-393 -115 -121 0
-393 -115 -122 0
-393 -116 -119 0
-393 -116 -120 0
-393 -116 -121 0
-393 -116 -122 0
-393 125 0
-393 130 0
-394 93 0
-394 -85 -89 0
-394 -96 -100 0
-394 -96 -101 0
-394 -96 -102 0
-394 -96 -103 0
-394 -106 -110 0
-394 -106 -111 0
-394 -106 -112 0
-394 -106 -113 0
-394 -107 -110 0
-394 -107 -111 0
-394 -107 -112 0
-394 -107 -113 0
-394 -115 -119 0
-394 -115 -120 0
-394 -115 -121 0
-394 -115 -122 0
-394 -116 -119 0
-394 -116 -120 0
-394 -116 -121 0
-394 -116 -122 0
-394 -117 -119 0
-394 -117 -120 0
-394 -117 -121 0
-394 -117 -122 0
-394 126 0
-394 130 0
-395 93 0
-395 -86 -89 0
-395 -97 -100 0
-395 -97 -101 0
-395 -97 -102 0
-395 -97 -103 0
-395 -107 -110 0
-395 -107 -111 0
-395 -107 -112 0
-395 -107 -113 0
-395 -108 -110 0
-395 -108 -111 0
-395 -108 -112 0
-395 -108 -113 0
-395 -116 -119 0
-395 -116 -120 0
-395 -116 -121 0
-395 -116 -122 0
-395 -117 -119 0
-395 -117 -120 0
-395 -117 -121 0
-395 -117 -122 0
-395 -118 -119 0
-395 -118 -120 0
-395 -118 -121 0
-395 -118 -122 0
-395 127 0
-395 130 0
-396 93 0
-396 -87 -89 0
-396 -98 -100 0
-396 -98 -101 0
-396 -98 -102 0
-396 -98 -103 0
-396 -108 -110 0
-396 -108 -111 0
-396 -108 -112 0
-396 -108 -113 0
-396 -109 -110 0
-396 -109 -111 0
-396 -109 -112 0
-396 -109 -113 0
-396 -117 -119 0
-396 -117 -120 0
-396 -117 -121 0
-396 -117 -122 0
-396 -118 -119 0
-396 -118 -120 0
-396 -118 -121 0
-396 -118 -122 0
-396 128 0
-396 130 0
-397 93 0
-397 -88 -89 0
-397 -99 -100 0
-397 -99 -101 0
-397 -99 -102 0
-397 -99 -103 0
-397 -109 -110 0
-397 -109 -111 0
-397 -109 -112 0
-397 -109 -113 0
-397 -118 -119 0
-397 -118 -120 0
-397 -118 -121 0
-397 -118 -122 0
-397 129 0
-397 130 0
-398 104 0
-398 -92 0
-398 -94 -89 -101 0
-398 -94 -90 -102 0
-398 -94 -91 -103 0
-398 -84 0
-398 -85 0
-398 -86 0
-398 -87 0
-398 -88 0
-398 -89 -105 -111 0
-398 -89 -105 -112 0
-398 -89 -105 -113 0
-398 -90 -105 -112 0
-398 -90 -105 -113 0
-398 -91 -105 -113 0
-398 -89 -115 -120 0
-398 -89 -115 -121 0
-398 -89 -115 -122 0
-398 -90 -115 -121 0
-398 -90 -115 -122 0
-398 -91 -115 -122 0
-398 135 0
-398 -89 142 0
-398 -90 143 0
-398 -91 144 0
-398 -134 0
-399 104 0
-399 -92 0
-399 -95 -89 -101 0
-399 -95 -90 -102 0
-399 -95 -91 -103 0
-399 -83 0
-399 -85 0
-399 -86 0
-399 -87 0
-399 -88 0
-399 -89 -105 -111 0
-399 -89 -105 -112 0
-399 -89 -105 -113 0
-399 -90 -105 -112 0
-399 -90 -105 -113 0
-399 -91 -105 -113 0
-399 -89 -106 -111 0
-399 -89 -106 -112 0
-399 -89 -106 -113 0
-399 -90 -106 -112 0
-399 -90 -106 -113 0
-399 -91 -106 -113 0
-399 -89 -115 -120 0
-399 -89 -115 -121 0
-399 -89 -115 -122 0
-399 -90 -115 -121 0
-399 -90 -115 -122 0
-399 -91 -115 -122 0
-399 -89 -116 -120 0
-399 -89 -116 -121 0
-399 -89 -116 -122 0
-399 -90 -116 -121 0
-399 -90 -116 -122 0
-399 -91 -116 -122 0
-399 136 0
-399 -89 142 0
-399 -90 143 0
-399 -91 144 0
-399 -134 0
-400 104 0
-400 -92 0
-400 -96 -89 -101 0
-400 -96 -90 -102 0
-400 -96 -91 -103 0
-400 -83 0
-400 -84 0
-400 -86 0
-400 -87 0
-400 -88 0
-400 -89 -106 -111 0
-400 -89 -106 -112 0
-400 -89 -106 -113 0
-400 -90 -106 -112 0
-400 -90 -106 -113 0
-400 -91 -106 -113 0
-400 -89 -107 -111 0
-400 -89 -107 -112 0
-400 -89 -107 -113 0
-400 -90 -107 -112 0
-400 -90 -107 -113 0
-400 -91 -107 -113 0
-400 -89 -115 -120 0
-400 -89 -115 -121 0
-400 -89 -115 -122 0
-400 -90 -115 -121 0
-400 -90 -115 -122 0
-400 -91 -115 -122 0
-400 -89 -116 -120 0
-400 -89 -116 -121 0
-400 -89 -116 -122 0
-400 -90 -116 -121 0
-400 -90 -116 -122 0
-400 -91 -116 -122 0
-400 -89 -117 -120 0
-400 -89 -117 -121 0
-400 -89 -117 -122 0
-400 -90 -117 -121 0
-400 -90 -117 -122 0
-400 -91 -117 -122 0
-400 137 0
-400 -89 142 0
-400 -90 143 0
-400 -91 144 0
-400 -134 0
-401 104 0
-401 -92 0
-401 -97 -89 -101 0
-401 -97 -90 -102 0
-401 -97 -91 -103 0
-401 -83 0
-401 -84 0
-401 -85 0
-401 -87 0
-401 -88 0
-401 -89 -107 -111 0
-401 -89 -107 -112 0
-401 -89 -107 -113 0
-401 -90 -107 -112 0
-401 -90 -107 -113 0
-401 -91 -107 -113 0
-401 -89 -108 -111 0
-401 -89 -108 -112 0
-401 -89 -108 -113 0
-401 -90 -108 -112 0
-401 -90 -108 -113 0
-401 -91 -108 -113 0
-401 -89 -116 -120 0
-401 -89 -116 -121 0
-401 -89 -116 -122 0
-401 -90 -116 -121 0
-401 -90 -116 -122 0
-401 -91 -116 -122 0
-401 -89 -117 -120 0
-401 -89 -117 -121 0
-401 -89 -117 -122 0
-401 -90 -117 -121 0
-401 -90 -117 -122 0
-401 -91 -117 -122 0
-401 -89 -118 -120 0
-401 -89 -118 -121 0
-401 -89 -118 -122 0
-401 -90 -118 -121 0
-401 -90 -118 -122 0
-401 -91 -118 -122 0
-401 138 0
-401 -89 142 0
-401 -90 143 0
-401 -91 144 0
-401 -134 0
-402 104 0
-402 -92 0
-402 -98 -89 -101 0
-402 -98 -90 -102 0
-402 -98 -91 -103 0
-402 -83 0
-402 -84 0
-402 -85 0
-402 -86 0
-402 -88 0
-402 -89 -108 -111 0
-402 -89 -108 -112 0
-402 -89 -108 -113 0
-402 -90 -108 -112 0
-402 -90 -108 -113 0
-402 -91 -108 -113 0
-402 -89 -109 -111 0
-402 -89 -109 -112 0
-402 -89 -109 -113 0
-402 -90 -109 -112 0
-402 -90 -109 -113 0
-402 -91 -109 -113 0
-402 -89 -117 -120 0
-402 -89 -117 -121 0
-402 -89 -117 -122 0
-402 -90 -117 -121 0
-402 -90 -117 -122 0
-402 -91 -117 -122 0
-402 -89 -118 -120 0
-402 -89 -118 -121 0
-402 -89 -118 -122 0
-402 -90 -118 -121 0
-402 -90 -118 -122 0
-402 -91 -118 -122 0
-402 139 0
-402 -89 142 0
-402 -90 143 0
-402 -91 144 0
-402 -134 0
-403 104 0
-403 -92 0
-403 -99 -89 -101 0
-403 -99 -90 -102 0
-403 -99 -91 -103 0
-403 -83 0
-403 -84 0
-403 -85 0
-403 -86 0
-403 -87 0
-403 -89 -109 -111 0
-403 -89 -109 -112 0
-403 -89 -109 -113 0
-403 -90 -109 -112 0
-403 -90 -109 -113 0
-403 -91 -109 -113 0
-403 -89 -118 -120 0
-403 -89 -118 -121 0
-403 -89 -118 -122 0
-403 -90 -118 -121 0
-403 -90 -118 -122 0
-403 -91 -118 -122 0
-403 140 0
-403 -89 142 0
-403 -90 143 0
-403 -91 144 0
-403 -134 0
-404 104 0
-404 -113 0
-404 -94 -110 -101 0
-404 -94 -111 -102 0
-404 -94 -112 -103 0
-404 -106 0
-404 -107 0
-404 -108 0
-404 -109 0
-404 -110 -83 -90 0
-404 -110 -83 -91 0
-404 -110 -83 -92 0
-404 -111 -83 -91 0
-404 -111 -83 -92 0
-404 -112 -83 -92 0
-404 -110 -115 -120 0
-404 -110 -115 -121 0
-404 -110 -115 -122 0
-404 -111 -115 -121 0
-404 -111 -115 -122 0
-404 -112 -115 -122 0
-404 135 0
-404 -110 142 0
-404 -111 143 0
-404 -112 144 0
-404 -155 0
-405 104 0
-405 -113 0
-405 -95 -110 -101 0
-405 -95 -111 -102 0
-405 -95 -112 -103 0
-405 -107 0
-405 -108 0
-405 -109 0
-405 -110 -84 -90 0
-405 -110 -84 -91 0
-405 -110 -84 -92 0
-405 -111 -84 -91 0
-405 -111 -84 -92 0
-405 -112 -84 -92 0
-405 -110 -115 -120 0
-405 -110 -115 -121 0
-405 -110 -115 -122 0
-405 -111 -115 -121 0
-405 -111 -115 -122 0
-405 -112 -115 -122 0
-405 -110 -116 -120 0
-405 -110 -116 -121 0
-405 -110 -116 -122 0
-405 -111 -116 -121 0
-405 -111 -116 -122 0
-405 -112 -116 -122 0
-405 136 0
-405 -110 142 0
-405 -111 143 0
-405 -112 144 0
-405 -155 0
-406 104 0
-406 -113 0
-406 -96 -110 -101 0
-406 -96 -111 -102 0
-406 -96 -112 -103 0
-406 -105 0
-406 -108 0
-406 -109 0
-406 -110 -85 -90 0
-406 -110 -85 -91 0
-406 -110 -85 -92 0
-406 -111 -85 -91 0
-406 -111 -85 -92 0
-406 -112 -85 -92 0
-406 -110 -115 -120 0
-406 -110 -115 -121 0
-406 -110 -115 -122 0
-406 -111 -115 -121 0
-406 -111 -115 -122 0
-406 -112 -115 -122 0
-406 -110 -116 -120 0
-406 -110 -116 -121 0
-406 -110 -116 -122 0
-406 -111 -116 -121 0
-406 -111 -116 -122 0
-406 -112 -116 -122 0
-406 -110 -117 -120 0
-406 -110 -117 -121 0
-406 -110 -117 -122 0
-406 -111 -117 -121 0
-406 -111 -117 -122 0
-406 -112 -117 -122 0
-406 137 0
-406 -110 142 0
-406 -111 143 0
-406 -112 144 0
-406 -155 0
-407 104 0
-407 -113 0
-407 -97 -110 -101 0
-407 -97 -111 -102 0
-407 -97 -112 -103 0
-407 -105 0
-407 -106 0
-407 -109 0
-407 -110 -86 -90 0
-407 -110 -86 -91 0
-407 -110 -86 -92 0
-407 -111 -86 -91 0
-407 -111 -86 -92 0
-407 -112 -86 -92 0
-407 -110 -116 -120 0
-407 -110 -116 -121 0
-407 -110 -116 -122 0
-407 -111 -116 -121 0
-407 -111 -116 -122 0
-407 -112 -116 -122 0
-407 -110 -117 -120 0
-407 -110 -117 -121 0
-407 -110 -117 -122 0
-407 -111 -117 -121 0
-407 -111 -117 -122 0
-407 -112 -117 -122 0
-407 -110 -118 -120 0
-407 -110 -118 -121 0
-407 -110 -118 -122 0
-407 -111 -118 -121 0
-407 -111 -118 -122 0
-407 -112 -118 -122 0
-407 138 0
-407 -110 142 0
-407 -111 143 0
-407 -112 144 0
-407 -155 0
-408 104 0
-408 -113 0
-408 -98 -110 -101 0
-408 -98 -111 -102 0
-408 -98 -112 -103 0
-408 -105 0
-408 -106 0
-408 -107 0
-408 -110 -87 -90 0
-408 -110 -87 -91 0
-408 -110 -87 -92 0
-408 -111 -87 -91 0
-408 -111 -87 -92 0
-408 -112 -87 -92 0
-408 -110 -117 -120 0
-408 -110 -117 -121 0
-408 -110 -117 -122 0
-408 -111 -117 -121 0
-408 -111 -117 -122 0
-408 -112 -117 -122 0
-408 -110 -118 -120 0
-408 -110 -118 -121 0
-408 -110 -118 -122 0
-408 -111 -118 -121 0
-408 -111 -118 -122 0
-408 -112 -118 -122 0
-408 139 0
-408 -110 142 0
-408 -111 143 0
-408 -112 144 0
-408 -155 0
-409 104 0
-409 -113 0
-409 -99 -110 -101 0
-409 -99 -111 -102 0
-409 -99 -112 -103 0
-409 -105 0
-409 -106 0
-409 -107 0
-409 -108 0
-409 -110 -88 -90 0
-409 -110 -88 -91 0
-409 -110 -88 -92 0
-409 -111 -88 -91 0
-409 -111 -88 -92 0
-409 -112 -88 -92 0
-409 -110 -118 -120 0
-409 -110 -118 -121 0
-409 -110 -118 -122 0
-409 -111 -118 -121 0
-409 -111 -118 -122 0
-409 -112 -118 -122 0
-409 140 0
-409 -110 142 0
-409 -111 143 0
-409 -112 144 0
-409 -155 0
-410 104 0
-410 -122 0
-410 -94 -119 -101 0
-410 -94 -120 -102 0
-410 -94 -121 -103 0
-410 -116 0
-410 -117 0
-410 -118 0
-410 -119 -83 -90 0
-410 -119 -83 -91 0
-410 -119 -83 -92 0
-410 -120 -83 -91 0
-410 -120 -83 -92 0
-410 -121 -83 -92 0
-410 -119 -105 -111 0
-410 -119 -105 -112 0
-410 -119 -105 -113 0
-410 -120 -105 -112 0
-410 -120 -105 -113 0
-410 -121 -105 -113 0
-410 135 0
-410 -119 142 0
-410 -120 143 0
-410 -121 144 0
-410 -164 0
-411 104 0
-411 -122 0
-411 -95 -119 -101 0
-411 -95 -120 -102 0
-411 -95 -121 -103 0
-411 -117 0
-411 -118 0
-411 -119 -84 -90 0
-411 -119 -84 -91 0
-411 -119 -84 -92 0
-411 -120 -84 -91 0
-411 -120 -84 -92 0
-411 -121 -84 -92 0
-411 -119 -105 -111 0
-411 -119 -105 -112 0
-411 -119 -105 -113 0
-411 -120 -105 -112 0
-411 -120 -105 -113 0
-411 -121 -105 -113 0
-411 -119 -106 -111 0
-411 -119 -106 -112 0
-411 -119 -106 -113 0
-411 -120 -106 -112 0
-411 -120 -106 -113 0
-411 -121 -106 -113 0
-411 136 0
-411 -119 142 0
-411 -120 143 0
-411 -121 144 0
-411 -164 0
-412 104 0
-412 -122 0
-412 -96 -119 -101 0
-412 -96 -120 -102 0
-412 -96 -121 -103 0
-412 -118 0
-412 -119 -85 -90 0
-412 -119 -85 -91 0
-412 -119 -85 -92 0
-412 -120 -85 -91 0
-412 -120 -85 -92 0
-412 -121 -85 -92 0
-412 -119 -106 -111 0
-412 -119 -106 -112 0
-412 -119 -106 -113 0
-412 -120 -106 -112 0
-412 -120 -106 -113 0
-412 -121 -106 -113 0
-412 -119 -107 -111 0
-412 -119 -107 -112 0
-412 -119 -107 -113 0
-412 -120 -107 -112 0
-412 -120 -107 -113 0
-412 -121 -107 -113 0
-412 137 0
-412 -119 142 0
-412 -120 143 0
-412 -121 144 0
-412 -164 0
-413 104 0
-413 -122 0
-413 -97 -119 -101 0
-413 -97 -120 -102 0
-413 -97 -121 -103 0
-413 -115 0
-413 -119 -86 -90 0
-413 -119 -86 -91 0
-413 -119 -86 -92 0
-413 -120 -86 -91 0
-413 -120 -86 -92 0
-413 -121 -86 -92 0
-413 -119 -107 -111 0
-413 -119 -107 -112 0
-413 -119 -107 -113 0
-413 -120 -107 -112 0
-413 -120 -107 -113 0
-413 -121 -107 -113 0
-413 -119 -108 -111 0
-413 -119 -108 -112 0
-413 -119 -108 -113 0
-413 -120 -108 -112 0
-413 -120 -108 -113 0
-413 -121 -108 -113 0
-413 138 0
-413 -119 142 0
-413 -120 143 0
-413 -121 144 0
-413 -164 0
-414 104 0
-414 -122 0
-414 -98 -119 -101 0
-414 -98 -120 -102 0
-414 -98 -121 -103 0
-414 -115 0
-414 -116 0
-414 -119 -87 -90 0
-414 -119 -87 -91 0
-414 -119 -87 -92 0
-414 -120 -87 -91 0
-414 -120 -87 -92 0
-414 -121 -87 -92 0
-414 -119 -108 -111 0
-414 -119 -108 -112 0
-414 -119 -108 -113 0
-414 -120 -108 -112 0
-414 -120 -108 -113 0
-414 -121 -108 -113 0
-414 -119 -109 -111 0
-414 -119 -109 -112 0
-414 -119 -109 -113 0
-414 -120 -109 -112 0
-414 -120 -109 -113 0
-414 -121 -109 -113 0
-414 139 0
-414 -119 142 0
-414 -120 143 0
-414 -121 144 0
-414 -164 0
-415 104 0
-415 -122 0
-415 -99 -119 -101 0
-415 -99 -120 -102 0
-415 -99 -121 -103 0
-415 -115 0
-415 -116 0
-415 -117 0
-415 -119 -88 -90 0
-415 -119 -88 -91 0
-415 -119 -88 -92 0
-415 -120 -88 -91 0
-415 -120 -88 -92 0
-415 -121 -88 -92 0
-415 -119 -109 -111 0
-415 -119 -109 -112 0
-415 -119 -109 -113 0
-415 -120 -109 -112 0
-415 -120 -109 -113 0
-415 -121 -109 -113 0
-415 140 0
-415 -119 142 0
-415 -120 143 0
-415 -121 144 0
-415 -164 0
-416 104 0
-416 -94 -100 0
-416 -83 -89 0
-416 -83 -90 0
-416 -83 -91 0
-416 -83 -92 0
-416 -105 -110 0
-416 -105 -111 0
-416 -105 -112 0
-416 -105 -113 0
-416 -115 -119 0
-416 -115 -120 0
-416 -115 -121 0
-416 -115 -122 0
-416 135 0
-416 141 0
-417 104 0
-417 -95 -100 0
-417 -84 -89 0
-417 -84 -90 0
-417 -84 -91 0
-417 -84 -92 0
-417 -105 -110 0
-417 -105 -111 0
-417 -105 -112 0
-417 -105 -113 0
-417 -106 -110 0
-417 -106 -111 0
-417 -106 -112 0
-417 -106 -113 0
-417 -115 -119 0
-417 -115 -120 0
-417 -115 -121 0
-417 -115 -122 0
-417 -116 -119 0
-417 -116 -120 0
-417 -116 -121 0
-417 -116 -122 0
-417 136 0
-417 141 0
-418 104 0
-418 -96 -100 0
-418 -85 -89 0
-418 -85 -90 0
-418 -85 -91 0
-418 -85 -92 0
-418 -106 -110 0
-418 -106 -111 0
-418 -106 -112 0
-418 -106 -113 0
-418 -107 -110 0
-418 -107 -111 0
-418 -107 -112 0
-418 -107 -113 0
-418 -115 -119 0
-418 -115 -120 0
-418 -115 -121 0
-418 -115 -122 0
-418 -116 -119 0
-418 -116 -120 0
-418 -116 -121 0
-418 -116 -122 0
-418 -117 -119 0
-418 -117 -120 0
-418 -117 -121 0
-418 -117 -122 0
-418 137 0
-418 141 0
-419 104 0
-419 -97 -100 0
-419 -86 -89 0
-419 -86 -90 0
-419 -86 -91 0
-419 -86 -92 0
-419 -107 -110 0
-419 -107 -111 0
-419 -107 -112 0
-419 -107 -113 0
-419 -108 -110 0
-419 -108 -111 0
-419 -108 -112 0
-419 -108 -113 0
-419 -116 -119 0
-419 -116 -120 0
-419 -116 -121 0
-419 -116 -122 0
-419 -117 -119 0
-419 -117 -120 0
-419 -117 -121 0
-419 -117 -122 0
-419 -118 -119 0
-419 -118 -120 0
-419 -118 -121 0
-419 -118 -122 0
-419 138 0
-419 141 0
-420 104 0
-420 -98 -100 0
-420 -87 -89 0
-420 -87 -90 0
-420 -87 -91 0
-420 -87 -92 0
-420 -108 -110 0
-420 -108 -111 0
-420 -108 -112 0
-420 -108 -113 0
-420 -109 -110 0
-420 -109 -111 0
-420 -109 -112 0
-420 -109 -113 0
-420 -117 -119 0
-420 -117 -120 0
-420 -117 -121 0
-420 -117 -122 0
-420 -118 -119 0
-420 -118 -120 0
-420 -118 -121 0
-420 -118 -122 0
-420 139 0
-420 141 0
-421 104 0
-421 -99 -100 0
-421 -88 -89 0
-421 -88 -90 0
-421 -88 -91 0
-421 -88 -92 0
-421 -109 -110 0
-421 -109 -111 0
-421 -109 -112 0
-421 -109 -113 0
-421 -118 -119 0
-421 -118 -120 0
-421 -118 -121 0
-421 -118 -122 0
-421 140 0
-421 141 0
-422 114 0
-422 -92 0
-422 -105 -89 -111 0
-422 -105 -90 -112 0
-422 -105 -91 -113 0
-422 -85 0
-422 -86 0
-422 -87 0
-422 -88 0
-422 -89 -94 -101 0
-422 -89 -94 -102 0
-422 -89 -94 -103 0
-422 -90 -94 -102 0
-422 -90 -94 -103 0
-422 -91 -94 -103 0
-422 -89 -95 -101 0
-422 -89 -95 -102 0
-422 -89 -95 -103 0
-422 -90 -95 -102 0
-422 -90 -95 -103 0
-422 -91 -95 -103 0
-422 -89 -115 -120 0
-422 -89 -115 -121 0
-422 -89 -115 -122 0
-422 -90 -115 -121 0
-422 -90 -115 -122 0
-422 -91 -115 -122 0
-422 -89 -116 -120 0
-422 -89 -116 -121 0
-422 -89 -116 -122 0
-422 -90 -116 -121 0
-422 -90 -116 -122 0
-422 -91 -116 -122 0
-422 146 0
-422 -89 152 0
-422 -90 153 0
-422 -91 154 0
-422 -134 0
-423 114 0
-423 -92 0
-423 -106 -89 -111 0
-423 -106 -90 -112 0
-423 -106 -91 -113 0
-423 -83 0
-423 -86 0
-423 -87 0
-423 -88 0
-423 -89 -95 -101 0
-423 -89 -95 -102 0
-423 -89 -95 -103 0
-423 -90 -95 -102 0
-423 -90 -95 -103 0
-423 -91 -95 -103 0
-423 -89 -96 -101 0
-423 -89 -96 -102 0
-423 -89 -96 -103 0
-423 -90 -96 -102 0
-423 -90 -96 -103 0
-423 -91 -96 -103 0
-423 -89 -115 -120 0
-423 -89 -115 -121 0
-423 -89 -115 -122 0
-423 -90 -115 -121 0
-423 -90 -115 -122 0
-423 -91 -115 -122 0
-423 -89 -116 -120 0
-423 -89 -116 -121 0
-423 -89 -116 -122 0
-423 -90 -116 -121 0
-423 -90 -116 -122 0
-423 -91 -116 -122 0
-423 -89 -117 -120 0
-423 -89 -117 -121 0
-423 -89 -117 -122 0
-423 -90 -117 -121 0
-423 -90 -117 -122 0
-423 -91 -117 -122 0
-423 147 0
-423 -89 152 0
-423 -90 153 0
-423 -91 154 0
-423 -134 0
-424 114 0
-424 -92 0
-424 -107 -89 -111 0
-424 -107 -90 -112 0
-424 -107 -91 -113 0
-424 -83 0
-424 -84 0
-424 -87 0
-424 -88 0
-424 -89 -96 -101 0
-424 -89 -96 -102 0
-424 -89 -96 -103 0
-424 -90 -96 -102 0
-424 -90 -96 -103 0
-424 -91 -96 -103 0
-424 -89 -97 -101 0
-424 -89 -97 -102 0
-424 -89 -97 -103 0
-424 -90 -97 -102 0
-424 -90 -97 -103 0
-424 -91 -97 -103 0
-424 -89 -115 -120 0
-424 -89 -115 -121 0
-424 -89 -115 -122 0
-424 -90 -115 -121 0
-424 -90 -115 -122 0
-424 -91 -115 -122 0
-424 -89 -116 -120 0
-424 -89 -116 -121 0
-424 -89 -116 -122 0
-424 -90 -116 -121 0
-424 -90 -116 -122 0
-424 -91 -116 -122 0
-424 -89 -117 -120 0
-424 -89 -117 -121 0
-424 -89 -117 -122 0
-424 -90 -117 -121 0
-424 -90 -117 -122 0
-424 -91 -117 -122 0
-424 -89 -118 -120 0
-424 -89 -118 -121 0
-424 -89 -118 -122 0
-424 -90 -118 -121 0
-424 -90 -118 -122 0
-424 -91 -118 -122 0
-424 148 0
-424 -89 152 0
-424 -90 153 0
-424 -91 154 0
-424 -134 0
-425 114 0
-425 -92 0
-425 -108 -89 -111 0
-425 -108 -90 -112 0
-425 -108 -91 -113 0
-425 -83 0
-425 -84 0
-425 -85 0
-425 -88 0
-425 -89 -97 -101 0
-425 -89 -97 -102 0
-425 -89 -97 -103 0
-425 -90 -97 -102 0
-425 -90 -97 -103 0
-425 -91 -97 -103 0
-425 -89 -98 -101 0
-425 -89 -98 -102 0
-425 -89 -98 -103 0
-425 -90 -98 -102 0
-425 -90 -98 -103 0
-425 -91 -98 -103 0
-425 -89 -116 -120 0
-425 -89 -116 -121 0
-425 -89 -116 -122 0
-425 -90 -116 -121 0
-425 -90 -116 -122 0
-425 -91 -116 -122 0
-425 -89 -117 -120 0
-425 -89 -117 -121 0
-425 -89 -117 -122 0
-425 -90 -117 -121 0
-425 -90 -117 -122 0
-425 -91 -117 -122 0
-425 -89 -118 -120 0
-425 -89 -118 -121 0
-425 -89 -118 -122 0
-425 -90 -118 -121 0
-425 -90 -118 -122 0
-425 -91 -118 -122 0
-425 149 0
-425 -89 152 0
-425 -90 153 0
-425 -91 154 0
-425 -134 0
-426 114 0
-426 -92 0
-426 -109 -89 -111 0
-426 -109 -90 -112 0
-426 -109 -91 -113 0
-426 -83 0
-426 -84 0
-426 -85 0
-426 -86 0
-426 -89 -98 -101 0
-426 -89 -98 -102 0
-426 -89 -98 -103 0
-426 -90 -98 -102 0
-426 -90 -98 -103 0
-426 -91 -98 -103 0
-426 -89 -99 -101 0
-426 -89 -99 -102 0
-426 -89 -99 -103 0
-426 -90 -99 -102 0
-426 -90 -99 -103 0
-426 -91 -99 -103 0
-426 -89 -117 -120 0
-426 -89 -117 -121 0
-426 -89 -117 -122 0
-426 -90 -117 -121 0
-426 -90 -117 -122 0
-426 -91 -117 -122 0
-426 -89 -118 -120 0
-426 -89 -118 -121 0
-426 -89 -118 -122 0
-426 -90 -118 -121 0
-426 -90 -118 -122 0
-426 -91 -118 -122 0
-426 150 0
-426 -89 152 0
-426 -90 153 0
-426 -91 154 0
-426 -134 0
-427 114 0
-427 -103 0
-427 -105 -100 -111 0
-427 -105 -101 -112 0
-427 -105 -102 -113 0
-427 -96 0
-427 -97 0
-427 -98 0
-427 -99 0
-427 -100 -83 -90 0
-427 -100 -83 -91 0
-427 -100 -83 -92 0
-427 -101 -83 -91 0
-427 -101 -83 -92 0
-427 -102 -83 -92 0
-427 -100 -84 -90 0
-427 -100 -84 -91 0
-427 -100 -84 -92 0
-427 -101 -84 -91 0
-427 -101 -84 -92 0
-427 -102 -84 -92 0
-427 -100 -115 -120 0
-427 -100 -115 -121 0
-427 -100 -115 -122 0
-427 -101 -115 -121 0
-427 -101 -115 -122 0
-427 -102 -115 -122 0
-427 -100 -116 -120 0
-427 -100 -116 -121 0
-427 -100 -116 -122 0
-427 -101 -116 -121 0
-427 -101 -116 -122 0
-427 -102 -116 -122 0
-427 146 0
-427 -100 152 0
-427 -101 153 0
-427 -102 154 0
-427 -145 0
-428 114 0
-428 -103 0
-428 -106 -100 -111 0
-428 -106 -101 -112 0
-428 -106 -102 -113 0
-428 -94 0
-428 -97 0
-428 -98 0
-428 -99 0
-428 -100 -84 -90 0
-428 -100 -84 -91 0
-428 -100 -84 -92 0
-428 -101 -84 -91 0
-428 -101 -84 -92 0
-428 -102 -84 -92 0
-428 -100 -85 -90 0
-428 -100 -85 -91 0
-428 -100 -85 -92 0
-428 -101 -85 -91 0
-428 -101 -85 -92 0
-428 -102 -85 -92 0
-428 -100 -115 -120 0
-428 -100 -115 -121 0
-428 -100 -115 -122 0
-428 -101 -115 -121 0
-428 -101 -115 -122 0
-428 -102 -115 -122 0
-428 -100 -116 -120 0
-428 -100 -116 -121 0
-428 -100 -116 -122 0
-428 -101 -116 -121 0
-428 -101 -116 -122 0
-428 -102 -116 -122 0
-428 -100 -117 -120 0
-428 -100 -117 -121 0
-428 -100 -117 -122 0
-428 -101 -117 -121 0
-428 -101 -117 -122 0
-428 -102 -117 -122 0
-428 147 0
-428 -100 152 0
-428 -101 153 0
-428 -102 154 0
-428 -145 0
-429 114 0
-429 -103 0
-429 -107 -100 -111 0
-429 -107 -101 -112 0
-429 -107 -102 -113 0
-429 -94 0
-429 -95 0
-429 -98 0
-429 -99 0
-429 -100 -85 -90 0
-429 -100 -85 -91 0
-429 -100 -85 -92 0
-429 -101 -85 -91 0
-429 -101 -85 -92 0
-429 -102 -85 -92 0
-429 -100 -86 -90 0
-429 -100 -86 -91 0
-429 -100 -86 -92 0
-429 -101 -86 -91 0
-429 -101 -86 -92 0
-429 -102 -86 -92 0
-429 -100 -115 -120 0
-429 -100 -115 -121 0
-429 -100 -115 -122 0
-429 -101 -115 -121 0
-429 -101 -115 -122 0
-429 -102 -115 -122 0
-429 -100 -116 -120 0
-429 -100 -116 -121 0
-429 -100 -116 -122 0
-429 -101 -116 -121 0
-429 -101 -116 -122 0
-429 -102 -116 -122 0
-429 -100 -117 -120 0
-429 -100 -117 -121 0
-429 -100 -117 -122 0
-429 -101 -117 -121 0
-429 -101 -117 -122 0
-429 -102 -117 -122 0
-429 -100 -118 -120 0
-429 -100 -118 -121 0
-429 -100 -118 -122 0
-429 -101 -118 -121 0
-429 -101 -118 -122 0
-429 -102 -118 -122 0
-429 148 0
-429 -100 152 0
-429 -101 153 0
-429 -102 154 0
-429 -145 0
-430 114 0
-430 -103 0
-430 -108 -100 -111 0
-430 -108 -101 -112 0
-430 -108 -102 -113 0
-430 -94 0
-430 -95 0
-430 -96 0
-430 -99 0
-430 -100 -86 -90 0
-430 -100 -86 -91 0
-430 -100 -86 -92 0
-430 -101 -86 -91 0
-430 -101 -86 -92 0
-430 -102 -86 -92 0
-430 -100 -87 -90 0
-430 -100 -87 -91 0
-430 -100 -87 -92 0
-430 -101 -87 -91 0
-430 -101 -87 -92 0
-430 -102 -87 -92 0
-430 -100 -116 -120 0
-430 -100 -116 -121 0
-430 -100 -116 -122 0
-430 -101 -116 -121 0
-430 -101 -116 -122 0
-430 -102 -116 -122 0
-430 -100 -117 -120 0
-430 -100 -117 -121 0
-430 -100 -117 -122 0
-430 -101 -117 -121 0
-430 -101 -117 -122 0
-430 -102 -117 -122 0
-430 -100 -118 -120 0
-430 -100 -118 -121 0
-430 -100 -118 -122 0
-430 -101 -118 -121 0
-430 -101 -118 -122 0
-430 -102 -118 -122 0
-430 149 0
-430 -100 152 0
-430 -101 153 0
-430 -102 154 0
-430 -145 0
-431 114 0
-431 -103 0
-431 -109 -100 -111 0
-431 -109 -101 -112 0
-431 -109 -102 -113 0
-431 -94 0
-431 -95 0
-431 -96 0
-431 -97 0
-431 -100 -87 -90 0
-431 -100 -87 -91 0
-431 -100 -87 -92 0
-431 -101 -87 -91 0
-431 -101 -87 -92 0
-431 -102 -87 -92 0
-431 -100 -88 -90 0
-431 -100 -88 -91 0
-431 -100 -88 -92 0
-431 -101 -88 -91 0
-431 -101 -88 -92 0
-431 -102 -88 -92 0
-431 -100 -117 -120 0
-431 -100 -117 -121 0
-431 -100 -117 -122 0
-431 -101 -117 -121 0
-431 -101 -117 -122 0
-431 -102 -117 -122 0
-431 -100 -118 -120 0
-431 -100 -118 -121 0
-431 -100 -118 -122 0
-431 -101 -118 -121 0
-431 -101 -118 -122 0
-431 -102 -118 -122 0
-431 150 0
-431 -100 152 0
-431 -101 153 0
-431 -102 154 0
-431 -145 0
-432 114 0
-432 -122 0
-432 -105 -119 -111 0
-432 -105 -120 -112 0
-432 -105 -121 -113 0
-432 -117 0
-432 -118 0
-432 -119 -83 -90 0
-432 -119 -83 -91 0
-432 -119 -83 -92 0
-432 -120 -83 -91 0
-432 -120 -83 -92 0
-432 -121 -83 -92 0
-432 -119 -84 -90 0
-432 -119 -84 -91 0
-432 -119 -84 -92 0
-432 -120 -84 -91 0
-432 -120 -84 -92 0
-432 -121 -84 -92 0
-432 -119 -94 -101 0
-432 -119 -94 -102 0
-432 -119 -94 -103 0
-432 -120 -94 -102 0
-432 -120 -94 -103 0
-432 -121 -94 -103 0
-432 -119 -95 -101 0
-432 -119 -95 -102 0
-432 -119 -95 -103 0
-432 -120 -95 -102 0
-432 -120 -95 -103 0
-432 -121 -95 -103 0
-432 146 0
-432 -119 152 0
-432 -120 153 0
-432 -121 154 0
-432 -164 0
-433 114 0
-433 -122 0
-433 -106 -119 -111 0
-433 -106 -120 -112 0
-433 -106 -121 -113 0
-433 -118 0
-433 -119 -84 -90 0
-433 -119 -84 -91 0
-433 -119 -84 -92 0
-433 -120 -84 -91 0
-433 -120 -84 -92 0
-433 -121 -84 -92 0
-433 -119 -85 -90 0
-433 -119 -85 -91 0
-433 -119 -85 -92 0
-433 -120 -85 -91 0
-433 -120 -85 -92 0
-433 -121 -85 -92 0
-433 -119 -95 -101 0
-433 -119 -95 -102 0
-433 -119 -95 -103 0
-433 -120 -95 -102 0
-433 -120 -95 -103 0
-433 -121 -95 -103 0
-433 -119 -96 -101 0
-433 -119 -96 -102 0
-433 -119 -96 -103 0
-433 -120 -96 -102 0
-433 -120 -96 -103 0
-433 -121 -96 -103 0
-433 147 0
-433 -119 152 0
-433 -120 153 0
-433 -121 154 0
-433 -164 0
-434 114 0
-434 -122 0
-434 -107 -119 -111 0
-434 -107 -120 -112 0
-434 -107 -121 -113 0
-434 -119 -85 -90 0
-434 -119 -85 -91 0
-434 -119 -85 -92 0
-434 -120 -85 -91 0
-434 -120 -85 -92 0
-434 -121 -85 -92 0
-434 -119 -86 -90 0
-434 -119 -86 -91 0
-434 -119 -86 -92 0
-434 -120 -86 -91 0
-434 -120 -86 -92 0
-434 -121 -86 -92 0
-434 -119 -96 -101 0
-434 -119 -96 -102 0
-434 -119 -96 -103 0
-434 -120 -96 -102 0
-434 -120 -96 -103 0
-434 -121 -96 -103 0
-434 -119 -97 -101 0
-434 -119 -97 -102 0
-434 -119 -97 -103 0
-434 -120 -97 -102 0
-434 -120 -97 -103 0
-434 -121 -97 -103 0
-434 148 0
-434 -119 152 0
-434 -120 153 0
-434 -121 154 0
-434 -164 0
-435 114 0
-435 -122 0
-435 -108 -119 -111 0
-435 -108 -120 -112 0
-435 -108 -121 -113 0
-435 -115 0
-435 -119 -86 -90 0
-435 -119 -86 -91 0
-435 -119 -86 -92 0
-435 -120 -86 -91 0
-435 -120 -86 -92 0
-435 -121 -86 -92 0
-435 -119 -87 -90 0
-435 -119 -87 -91 0
-435 -119 -87 -92 0
-435 -120 -87 -91 0
-435 -120 -87 -92 0
-435 -121 -87 -92 0
-435 -119 -97 -101 0
-435 -119 -97 -102 0
-435 -119 -97 -103 0
-435 -120 -97 -102 0
-435 -120 -97 -103 0
-435 -121 -97 -103 0
-435 -119 -98 -101 0
-435 -119 -98 -102 0
-435 -119 -98 -103 0
-435 -120 -98 -102 0
-435 -120 -98 -103 0
-435 -121 -98 -103 0
-435 149 0
-435 -119 152 0
-435 -120 153 0
-435 -121 154 0
-435 -164 0
-436 114 0
-436 -122 0
-436 -109 -119 -111 0
-436 -109 -120 -112 0
-436 -109 -121 -113 0
-436 -115 0
-436 -116 0
-436 -119 -87 -90 0
-436 -119 -87 -91 0
-436 -119 -87 -92 0
-436 -120 -87 -91 0
-436 -120 -87 -92 0
-436 -121 -87 -92 0
-436 -119 -88 -90 0
-436 -119 -88 -91 0
-436 -119 -88 -92 0
-436 -120 -88 -91 0
-436 -120 -88 -92 0
-436 -121 -88 -92 0
-436 -119 -98 -101 0
-436 -119 -98 -102 0
-436 -119 -98 -103 0
-436 -120 -98 -102 0
-436 -120 -98 -103 0
-436 -121 -98 -103 0
-436 -119 -99 -101 0
-436 -119 -99 -102 0
-436 -119 -99 -103 0
-436 -120 -99 -102 0
-436 -120 -99 -103 0
-436 -121 -99 -103 0
-436 150 0
-436 -119 152 0
-436 -120 153 0
-436 -121 154 0
-436 -164 0
-437 114 0
-437 -105 -110 0
-437 -83 -89 0
-437 -83 -90 0
-437 -83 -91 0
-437 -83 -92 0
-437 -84 -89 0
-437 -84 -90 0
-437 -84 -91 0
-437 -84 -92 0
-437 -94 -100 0
-437 -94 -101 0
-437 -94 -102 0
-437 -94 -103 0
-437 -95 -100 0
-437 -95 -101 0
-437 -95 -102 0
-437 -95 -103 0
-437 -115 -119 0
-437 -115 -120 0
-437 -115 -121 0
-437 -115 -122 0
-437 -116 -119 0
-437 -116 -120 0
-437 -116 -121 0
-437 -116 -122 0
-437 146 0
-437 151 0
-438 114 0
-438 -106 -110 0
-438 -84 -89 0
-438 -84 -90 0
-438 -84 -91 0
-438 -84 -92 0
-438 -85 -89 0
-438 -85 -90 0
-438 -85 -91 0
-438 -85 -92 0
-438 -95 -100 0
-438 -95 -101 0
-438 -95 -102 0
-438 -95 -103 0
-438 -96 -100 0
-438 -96 -101 0
-438 -96 -102 0
-438 -96 -103 0
-438 -115 -119 0
-438 -115 -120 0
-438 -115 -121 0
-438 -115 -122 0
-438 -116 -119 0
-438 -116 -120 0
-438 -116 -121 0
-438 -116 -122 0
-438 -117 -119 0
-438 -117 -120 0
-438 -117 -121 0
-438 -117 -122 0
-438 147 0
-438 151 0
-439 114 0
-439 -107 -110 0
-439 -85 -89 0
-439 -85 -90 0
-439 -85 -91 0
-439 -85 -92 0
-439 -86 -89 0
-439 -86 -90 0
-439 -86 -91 0
-439 -86 -92 0
-439 -96 -100 0
-439 -96 -101 0
-439 -96 -102 0
-439 -96 -103 0
-439 -97 -100 0
-439 -97 -101 0
-439 -97 -102 0
-439 -97 -103 0
-439 -115 -119 0
-439 -115 -120 0
-439 -115 -121 0
-439 -115 -122 0
-439 -116 -119 0
-439 -116 -120 0
-439 -116 -121 0
-439 -116 -122 0
-439 -117 -119 0
-439 -117 -120 0
-439 -117 -121 0
-439 -117 -122 0
-439 -118 -119 0
-439 -118 -120 0
-439 -118 -121 0
-439 -118 -122 0
-439 148 0
-439 151 0
-440 114 0
-440 -108 -110 0
-440 -86 -89 0
-440 -86 -90 0
-440 -86 -91 0
-440 -86 -92 0
-440 -87 -89 0
-440 -87 -90 0
-440 -87 -91 0
-440 -87 -92 0
-440 -97 -100 0
-440 -97 -101 0
-440 -97 -102 0
-440 -97 -103 0
-440 -98 -100 0
-440 -98 -101 0
-440 -98 -102 0
-440 -98 -103 0
-440 -116 -119 0
-440 -116 -120 0
-440 -116 -121 0
-440 -116 -122 0
-440 -117 -119 0
-440 -117 -120 0
-440 -117 -121 0
-440 -117 -122 0
-440 -118 -119 0
-440 -118 -120 0
-440 -118 -121 0
-440 -118 -122 0
-440 149 0
-440 151 0
-441 114 0
-441 -109 -110 0
-441 -87 -89 0
-441 -87 -90 0
-441 -87 -91 0
-441 -87 -92 0
-441 -88 -89 0
-441 -88 -90 0
-441 -88 -91 0
-441 -88 -92 0
-441 -98 -100 0
-441 -98 -101 0
-441 -98 -102 0
-441 -98 -103 0
-441 -99 -100 0
-441 -99 -101 0
-441 -99 -102 0
-441 -99 -103 0
-441 -117 -119 0
-441 -117 -120 0
-441 -117 -121 0
-441 -117 -122 0
-441 -118 -119 0
-441 -118 -120 0
-441 -118 -121 0
-441 -118 -122 0
-441 150 0
-441 151 0
-442 123 0
-442 -92 0
-442 -115 -89 -120 0
-442 -115 -90 -121 0
-442 -115 -91 -122 0
-442 -86 0
-442 -87 0
-442 -88 0
-442 -89 -94 -101 0
-442 -89 -94 -102 0
-442 -89 -94 -103 0
-442 -90 -94 -102 0
-442 -90 -94 -103 0
-442 -91 -94 -103 0
-442 -89 -95 -101 0
-442 -89 -95 -102 0
-442 -89 -95 -103 0
-442 -90 -95 -102 0
-442 -90 -95 -103 0
-442 -91 -95 -103 0
-442 -89 -96 -101 0
-442 -89 -96 -102 0
-442 -89 -96 -103 0
-442 -90 -96 -102 0
-442 -90 -96 -103 0
-442 -91 -96 -103 0
-442 -89 -105 -111 0
-442 -89 -105 -112 0
-442 -89 -105 -113 0
-442 -90 -105 -112 0
-442 -90 -105 -113 0
-442 -91 -105 -113 0
-442 -89 -106 -111 0
-442 -89 -106 -112 0
-442 -89 -106 -113 0
-442 -90 -106 -112 0
-442 -90 -106 -113 0
-442 -91 -106 -113 0
-442 -89 -107 -111 0
-442 -89 -107 -112 0
-442 -89 -107 -113 0
-442 -90 -107 -112 0
-442 -90 -107 -113 0
-442 -91 -107 -113 0
-442 156 0
-442 -89 161 0
-442 -90 162 0
-442 -91 163 0
-442 -134 0
-443 123 0
-443 -92 0
-443 -116 -89 -120 0
-443 -116 -90 -121 0
-443 -116 -91 -122 0
-443 -83 0
-443 -87 0
-443 -88 0
-443 -89 -95 -101 0
-443 -89 -95 -102 0
-443 -89 -95 -103 0
-443 -90 -95 -102 0
-443 -90 -95 -103 0
-443 -91 -95 -103 0
-443 -89 -96 -101 0
-443 -89 -96 -102 0
-443 -89 -96 -103 0
-443 -90 -96 -102 0
-443 -90 -96 -103 0
-443 -91 -96 -103 0
-443 -89 -97 -101 0
-443 -89 -97 -102 0
-443 -89 -97 -103 0
-443 -90 -97 -102 0
-443 -90 -97 -103 0
-443 -91 -97 -103 0
-443 -89 -105 -111 0
-443 -89 -105 -112 0
-443 -89 -105 -113 0
-443 -90 -105 -112 0
-443 -90 -105 -113 0
-443 -91 -105 -113 0
-443 -89 -106 -111 0
-443 -89 -106 -112 0
-443 -89 -106 -113 0
-443 -90 -106 -112 0
-443 -90 -106 -113 0
-443 -91 -106 -113 0
-443 -89 -107 -111 0
-443 -89 -107 -112 0
-443 -89 -107 -113 0
-443 -90 -107 -112 0
-443 -90 -107 -113 0
-443 -91 -107 -113 0
-443 -89 -108 -111 0
-443 -89 -108 -112 0
-443 -89 -108 -113 0
-443 -90 -108 -112 0
-443 -90 -108 -113 0
-443 -91 -108 -113 0
-443 157 0
-443 -89 161 0
-443 -90 162 0
-443 -91 163 0
-443 -134 0
-444 123 0
-444 -92 0
-444 -117 -89 -120 0
-444 -117 -90 -121 0
-444 -117 -91 -122 0
-444 -83 0
-444 -84 0
-444 -88 0
-444 -89 -96 -101 0
-444 -89 -96 -102 0
-444 -89 -96 -103 0
-444 -90 -96 -102 0
-444 -90 -96 -103 0
-444 -91 -96 -103 0
-444 -89 -97 -101 0
-444 -89 -97 -102 0
-444 -89 -97 -103 0
-444 -90 -97 -102 0
-444 -90 -97 -103 0
-444 -91 -97 -103 0
-444 -89 -98 -101 0
-444 -89 -98 -102 0
-444 -89 -98 -103 0
-444 -90 -98 -102 0
-444 -90 -98 -103 0
-444 -91 -98 -103 0
-444 -89 -106 -111 0
-444 -89 -106 -112 0
-444 -89 -106 -113 0
-444 -90 -106 -112 0
-444 -90 -106 -113 0
-444 -91 -106 -113 0
-444 -89 -107 -111 0
-444 -89 -107 -112 0
-444 -89 -107 -113 0
-444 -90 -107 -112 0
-444 -90 -107 -113 0
-444 -91 -107 -113 0
-444 -89 -108 -111 0
-444 -89 -108 -112 0
-444 -89 -108 -113 0
-444 -90 -108 -112 0
-444 -90 -108 -113 0
-444 -91 -108 -113 0
-444 -89 -109 -111 0
-444 -89 -109 -112 0
-444 -89 -109 -113 0
-444 -90 -109 -112 0
-444 -90 -109 -113 0
-444 -91 -109 -113 0
-444 158 0
-444 -89 161 0
-444 -90 162 0
-444 -91 163 0
-444 -134 0
-445 123 0
-445 -92 0
-445 -118 -89 -120 0
-445 -118 -90 -121 0
-445 -118 -91 -122 0
-445 -83 0
-445 -84 0
-445 -85 0
-445 -89 -97 -101 0
-445 -89 -97 -102 0
-445 -89 -97 -103 0
-445 -90 -97 -102 0
-445 -90 -97 -103 0
-445 -91 -97 -103 0
-445 -89 -98 -101 0
-445 -89 -98 -102 0
-445 -89 -98 -103 0
-445 -90 -98 -102 0
-445 -90 -98 -103 0
-445 -91 -98 -103 0
-445 -89 -99 -101 0
-445 -89 -99 -102 0
-445 -89 -99 -103 0
-445 -90 -99 -102 0
-445 -90 -99 -103 0
-445 -91 -99 -103 0
-445 -89 -107 -111 0
-445 -89 -107 -112 0
-445 -89 -107 -113 0
-445 -90 -107 -112 0
-445 -90 -107 -113 0
-445 -91 -107 -113 0
-445 -89 -108 -111 0
-445 -89 -108 -112 0
-445 -89 -108 -113 0
-445 -90 -108 -112 0
-445 -90 -108 -113 0
-445 -91 -108 -113 0
-445 -89 -109 -111 0
-445 -89 -109 -112 0
-445 -89 -109 -113 0
-445 -90 -109 -112 0
-445 -90 -109 -113 0
-445 -91 -109 -113 0
-445 159 0
-445 -89 161 0
-445 -90 162 0
-445 -91 163 0
-445 -134 0
-446 123 0
-446 -103 0
-446 -115 -100 -120 0
-446 -115 -101 -121 0
-446 -115 -102 -122 0
-446 -97 0
-446 -98 0
-446 -99 0
-446 -100 -83 -90 0
-446 -100 -83 -91 0
-446 -100 -83 -92 0
-446 -101 -83 -91 0
-446 -101 -83 -92 0
-446 -102 -83 -92 0
-446 -100 -84 -90 0
-446 -100 -84 -91 0
-446 -100 -84 -92 0
-446 -101 -84 -91 0
-446 -101 -84 -92 0
-446 -102 -84 -92 0
-446 -100 -85 -90 0
-446 -100 -85 -91 0
-446 -100 -85 -92 0
-446 -101 -85 -91 0
-446 -101 -85 -92 0
-446 -102 -85 -92 0
-446 -100 -105 -111 0
-446 -100 -105 -112 0
-446 -100 -105 -113 0
-446 -101 -105 -112 0
-446 -101 -105 -113 0
-446 -102 -105 -113 0
-446 -100 -106 -111 0
-446 -100 -106 -112 0
-446 -100 -106 -113 0
-446 -101 -106 -112 0
-446 -101 -106 -113 0
-446 -102 -106 -113 0
-446 -100 -107 -111 0
-446 -100 -107 -112 0
-446 -100 -107 -113 0
-446 -101 -107 -112 0
-446 -101 -107 -113 0
-446 -102 -107 -113 0
-446 156 0
-446 -100 161 0
-446 -101 162 0
-446 -102 163 0
-446 -145 0
-447 123 0
-447 -103 0
-447 -116 -100 -120 0
-447 -116 -101 -121 0
-447 -116 -102 -122 0
-447 -94 0
-447 -98 0
-447 -99 0
-447 -100 -84 -90 0
-447 -100 -84 -91 0
-447 -100 -84 -92 0
-447 -101 -84 -91 0
-447 -101 -84 -92 0
-447 -102 -84 -92 0
-447 -100 -85 -90 0
-447 -100 -85 -91 0
-447 -100 -85 -92 0
-447 -101 -85 -91 0
-447 -101 -85 -92 0
-447 -102 -85 -92 0
-447 -100 -86 -90 0
-447 -100 -86 -91 0
-447 -100 -86 -92 0
-447 -101 -86 -91 0
-447 -101 -86 -92 0
-447 -102 -86 -92 0
-447 -100 -105 -111 0
-447 -100 -105 -112 0
-447 -100 -105 -113 0
-447 -101 -105 -112 0
-447 -101 -105 -113 0
-447 -102 -105 -113 0
-447 -100 -106 -111 0
-447 -100 -106 -112 0
-447 -100 -106 -113 0
-447 -101 -106 -112 0
-447 -101 -106 -113 0
-447 -102 -106 -113 0
-447 -100 -107 -111 0
-447 -100 -107 -112 0
-447 -100 -107 -113 0
-447 -101 -107 -112 0
-447 -101 -107 -113 0
-447 -102 -107 -113 0
-447 -100 -108 -111 0
-447 -100 -108 -112 0
-447 -100 -108 -113 0
-447 -101 -108 -112 0
-447 -101 -108 -113 0
-447 -102 -108 -113 0
-447 157 0
-447 -100 161 0
-447 -101 162 0
-447 -102 163 0
-447 -145 0
-448 123 0
-448 -103 0
-448 -117 -100 -120 0
-448 -117 -101 -121 0
-448 -117 -102 -122 0
-448 -94 0
-448 -95 0
-448 -99 0
-448 -100 -85 -90 0
-448 -100 -85 -91 0
-448 -100 -85 -92 0
-448 -101 -85 -91 0
-448 -101 -85 -92 0
-448 -102 -85 -92 0
-448 -100 -86 -90 0
-448 -100 -86 -91 0
-448 -100 -86 -92 0
-448 -101 -86 -91 0
-448 -101 -86 -92 0
-448 -102 -86 -92 0
-448 -100 -87 -90 0
-448 -100 -87 -91 0
-448 -100 -87 -92 0
-448 -101 -87 -91 0
-448 -101 -87 -92 0
-448 -102 -87 -92 0
-448 -100 -106 -111 0
-448 -100 -106 -112 0
-448 -100 -106 -113 0
-448 -101 -106 -112 0
-448 -101 -106 -113 0
-448 -102 -106 -113 0
-448 -100 -107 -111 0
-448 -100 -107 -112 0
-448 -100 -107 -113 0
-448 -101 -107 -112 0
-448 -101 -107 -113 0
-448 -102 -107 -113 0
-448 -100 -108 -111 0
-448 -100 -108 -112 0
-448 -100 -108 -113 0
-448 -101 -108 -112 0
-448 -101 -108 -113 0
-448 -102 -108 -113 0
-448 -100 -109 -111 0
-448 -100 -109 -112 0
-448 -100 -109 -113 0
-448 -101 -109 -112 0
-448 -101 -109 -113 0
-448 -102 -109 -113 0
-448 158 0
-448 -100 161 0
-448 -101 162 0
-448 -102 163 0
-448 -145 0
-449 123 0
-449 -103 0
-449 -118 -100 -120 0
-449 -118 -101 -121 0
-449 -118 -102 -122 0
-449 -94 0
-449 -95 0
-449 -96 0
-449 -100 -86 -90 0
-449 -100 -86 -91 0
-449 -100 -86 -92 0
-449 -101 -86 -91 0
-449 -101 -86 -92 0
-449 -102 -86 -92 0
-449 -100 -87 -90 0
-449 -100 -87 -91 0
-449 -100 -87 -92 0
-449 -101 -87 -91 0
-449 -101 -87 -92 0
-449 -102 -87 -92 0
-449 -100 -88 -90 0
-449 -100 -88 -91 0
-449 -100 -88 -92 0
-449 -101 -88 -91 0
-449 -101 -88 -92 0
-449 -102 -88 -92 0
-449 -100 -107 -111 0
-449 -100 -107 -112 0
-449 -100 -107 -113 0
-449 -101 -107 -112 0
-449 -101 -107 -113 0
-449 -102 -107 -113 0
-449 -100 -108 -111 0
-449 -100 -108 -112 0
-449 -100 -108 -113 0
-449 -101 -108 -112 0
-449 -101 -108 -113 0
-449 -102 -108 -113 0
-449 -100 -109 -111 0
-449 -100 -109 -112 0
-449 -100 -109 -113 0
-449 -101 -109 -112 0
-449 -101 -109 -113 0
-449 -102 -109 -113 0
-449 159 0
-449 -100 161 0
-449 -101 162 0
-449 -102 163 0
-449 -145 0
-450 123 0
-450 -113 0
-450 -115 -110 -120 0
-450 -115 -111 -121 0
-450 -115 -112 -122 0
-450 -108 0
-450 -109 0
-450 -110 -83 -90 0
-450 -110 -83 -91 0
-450 -110 -83 -92 0
-450 -111 -83 -91 0
-450 -111 -83 -92 0
-450 -112 -83 -92 0
-450 -110 -84 -90 0
-450 -110 -84 -91 0
-450 -110 -84 -92 0
-450 -111 -84 -91 0
-450 -111 -84 -92 0
-450 -112 -84 -92 0
-450 -110 -85 -90 0
-450 -110 -85 -91 0
-450 -110 -85 -92 0
-450 -111 -85 -91 0
-450 -111 -85 -92 0
-450 -112 -85 -92 0
-450 -110 -94 -101 0
-450 -110 -94 -102 0
-450 -110 -94 -103 0
-450 -111 -94 -102 0
-450 -111 -94 -103 0
-450 -112 -94 -103 0
-450 -110 -95 -101 0
-450 -110 -95 -102 0
-450 -110 -95 -103 0
-450 -111 -95 -102 0
-450 -111 -95 -103 0
-450 -112 -95 -103 0
-450 -110 -96 -101 0
-450 -110 -96 -102 0
-450 -110 -96 -103 0
-450 -111 -96 -102 0
-450 -111 -96 -103 0
-450 -112 -96 -103 0
-450 156 0
-450 -110 161 0
-450 -111 162 0
-450 -112 163 0
-450 -155 0
-451 123 0
-451 -113 0
-451 -116 -110 -120 0
-451 -116 -111 -121 0
-451 -116 -112 -122 0
-451 -109 0
-451 -110 -84 -90 0
-451 -110 -84 -91 0
-451 -110 -84 -92 0
-451 -111 -84 -91 0
-451 -111 -84 -92 0
-451 -112 -84 -92 0
-451 -110 -85 -90 0
-451 -110 -85 -91 0
-451 -110 -85 -92 0
-451 -111 -85 -91 0
-451 -111 -85 -92 0
-451 -112 -85 -92 0
-451 -110 -86 -90 0
-451 -110 -86 -91 0
-451 -110 -86 -92 0
-451 -111 -86 -91 0
-451 -111 -86 -92 0
-451 -112 -86 -92 0
-451 -110 -95 -101 0
-451 -110 -95 -102 0
-451 -110 -95 -103 0
-451 -111 -95 -102 0
-451 -111 -95 -103 0
-451 -112 -95 -103 0
-451 -110 -96 -101 0
-451 -110 -96 -102 0
-451 -110 -96 -103 0
-451 -111 -96 -102 0
-451 -111 -96 -103 0
-451 -112 -96 -103 0
-451 -110 -97 -101 0
-451 -110 -97 -102 0
-451 -110 -97 -103 0
-451 -111 -97 -102 0
-451 -111 -97 -103 0
-451 -112 -97 -103 0
-451 157 0
-451 -110 161 0
-451 -111 162 0
-451 -112 163 0
-451 -155 0
-452 123 0
-452 -113 0
-452 -117 -110 -120 0
-452 -117 -111 -121 0
-452 -117 -112 -122 0
-452 -105 0
-452 -110 -85 -90 0
-452 -110 -85 -91 0
-452 -110 -85 -92 0
-452 -111 -85 -91 0
-452 -111 -85 -92 0
-452 -112 -85 -92 0
-452 -110 -86 -90 0
-452 -110 -86 -91 0
-452 -110 -86 -92 0
-452 -111 -86 -91 0
-452 -111 -86 -92 0
-452 -112 -86 -92 0
-452 -110 -87 -90 0
-452 -110 -87 -91 0
-452 -110 -87 -92 0
-452 -111 -87 -91 0
-452 -111 -87 -92 0
-452 -112 -87 -92 0
-452 -110 -96 -101 0
-452 -110 -96 -102 0
-452 -110 -96 -103 0
-452 -111 -96 -102 0
-452 -111 -96 -103 0
-452 -112 -96 -103 0
-452 -110 -97 -101 0
-452 -110 -97 -102 0
-452 -110 -97 -103 0
-452 -111 -97 -102 0
-452 -111 -97 -103 0
-452 -112 -97 -103 0
-452 -110 -98 -101 0
-452 -110 -98 -102 0
-452 -110 -98 -103 0
-452 -111 -98 -102 0
-452 -111 -98 -103 0
-452 -112 -98 -103 0
-452 158 0
-452 -110 161 0
-452 -111 162 0
-452 -112 163 0
-452 -155 0
-453 123 0
-453 -113 0
-453 -118 -110 -120 0
-453 -118 -111 -121 0
-453 -118 -112 -122 0
-453 -105 0
-453 -106 0
-453 -110 -86 -90 0
-453 -110 -86 -91 0
-453 -110 -86 -92 0
-453 -111 -86 -91 0
-453 -111 -86 -92 0
-453 -112 -86 -92 0
-453 -110 -87 -90 0
-453 -110 -87 -91 0
-453 -110 -87 -92 0
-453 -111 -87 -91 0
-453 -111 -87 -92 0
-453 -112 -87 -92 0
-453 -110 -88 -90 0
-453 -110 -88 -91 0
-453 -110 -88 -92 0
-453 -111 -88 -91 0
-453 -111 -88 -92 0
-453 -112 -88 -92 0
-453 -110 -97 -101 0
-453 -110 -97 -102 0
-453 -110 -97 -103 0
-453 -111 -97 -102 0
-453 -111 -97 -103 0
-453 -112 -97 -103 0
-453 -110 -98 -101 0
-453 -110 -98 -102 0
-453 -110 -98 -103 0
-453 -111 -98 -102 0
-453 -111 -98 -103 0
-453 -112 -98 -103 0
-453 -110 -99 -101 0
-453 -110 -99 -102 0
-453 -110 -99 -103 0
-453 -111 -99 -102 0
-453 -111 -99 -103 0
-453 -112 -99 -103 0
-453 159 0
-453 -110 161 0
-453 -111 162 0
-453 -112 163 0
-453 -155 0
-454 123 0
-454 -115 -119 0
-454 -83 -89 0
-454 -83 -90 0
-454 -83 -91 0
-454 -83 -92 0
-454 -84 -89 0
-454 -84 -90 0
-454 -84 -91 0
-454 -84 -92 0
-454 -85 -89 0
-454 -85 -90 0
-454 -85 -91 0
-454 -85 -92 0
-454 -94 -100 0
-454 -94 -101 0
-454 -94 -102 0
-454 -94 -103 0
-454 -95 -100 0
-454 -95 -101 0
-454 -95 -102 0
-454 -95 -103 0
-454 -96 -100 0
-454 -96 -101 0
-454 -96 -102 0
-454 -96 -103 0
-454 -105 -110 0
-454 -105 -111 0
-454 -105 -112 0
-454 -105 -113 0
-454 -106 -110 0
-454 -106 -111 0
-454 -106 -112 0
-454 -106 -113 0
-454 -107 -110 0
-454 -107 -111 0
-454 -107 -112 0
-454 -107 -113 0
-454 156 0
-454 160 0
-455 123 0
-455 -116 -119 0
-455 -84 -89 0
-455 -84 -90 0
-455 -84 -91 0
-455 -84 -92 0
-455 -85 -89 0
-455 -85 -90 0
-455 -85 -91 0
-455 -85 -92 0
-455 -86 -89 0
-455 -86 -90 0
-455 -86 -91 0
-455 -86 -92 0
-455 -95 -100 0
-455 -95 -101 0
-455 -95 -102 0
-455 -95 -103 0
-455 -96 -100 0
-455 -96 -101 0
-455 -96 -102 0
-455 -96 -103 0
-455 -97 -100 0
-455 -97 -101 0
-455 -97 -102 0
-455 -97 -103 0
-455 -105 -110 0
-455 -105 -111 0
-455 -105 -112 0
-455 -105 -113 0
-455 -106 -110 0
-455 -106 -111 0
-455 -106 -112 0
-455 -106 -113 0
-455 -107 -110 0
-455 -107 -111 0
-455 -107 -112 0
-455 -107 -113 0
-455 -108 -110 0
-455 -108 -111 0
-455 -108 -112 0
-455 -108 -113 0
-455 157 0
-455 160 0
-456 123 0
-456 -117 -119 0
-456 -85 -89 0
-456 -85 -90 0
-456 -85 -91 0
-456 -85 -92 0
-456 -86 -89 0
-456 -86 -90 0
-456 -86 -91 0
-456 -86 -92 0
-456 -87 -89 0
-456 -87 -90 0
-456 -87 -91 0
-456 -87 -92 0
-456 -96 -100 0
-456 -96 -101 0
-456 -96 -102 0
-456 -96 -103 0
-456 -97 -100 0
-456 -97 -101 0
-456 -97 -102 0
-456 -97 -103 0
-456 -98 -100 0
-456 -98 -101 0
-456 -98 -102 0
-456 -98 -103 0
-456 -106 -110 0
-456 -106 -111 0
-456 -106 -112 0
-456 -106 -113 0
-456 -107 -110 0
-456 -107 -111 0
-456 -107 -112 0
-456 -107 -113 0
-456 -108 -110 0
-456 -108 -111 0
-456 -108 -112 0
-456 -108 -113 0
-456 -109 -110 0
-456 -109 -111 0
-456 -109 -112 0
-456 -109 -113 0
-456 158 0
-456 160 0
-457 123 0
-457 -118 -119 0
-457 -86 -89 0
-457 -86 -90 0
-457 -86 -91 0
-457 -86 -92 0
-457 -87 -89 0
-457 -87 -90 0
-457 -87 -91 0
-457 -87 -92 0
-457 -88 -89 0
-457 -88 -90 0
-457 -88 -91 0
-457 -88 -92 0
-457 -97 -100 0
-457 -97 -101 0
-457 -97 -102 0
-457 -97 -103 0
-457 -98 -100 0
-457 -98 -101 0
-457 -98 -102 0
-457 -98 -103 0
-457 -99 -100 0
-457 -99 -101 0
-457 -99 -102 0
-457 -99 -103 0
-457 -107 -110 0
-457 -107 -111 0
-457 -107 -112 0
-457 -107 -113 0
-457 -108 -110 0
-457 -108 -111 0
-457 -108 -112 0
-457 -108 -113 0
-457 -109 -110 0
-457 -109 -111 0
-457 -109 -112 0
-457 -109 -113 0
-457 159 0
-457 160 0
-458 134 0
-458 -144 0
-458 -124 -141 -131 0
-458 -124 -142 -132 0
-458 -124 -143 -133 0
-458 -136 0
-458 -137 0
-458 -138 0
-458 -139 0
-458 -140 0
-458 -141 -146 -152 0
-458 -141 -146 -153 0
-458 -141 -146 -154 0
-458 -142 -146 -153 0
-458 -142 -146 -154 0
-458 -143 -146 -154 0
-458 -141 -156 -161 0
-458 -141 -156 -162 0
-458 -141 -156 -163 0
-458 -142 -156 -162 0
-458 -142 -156 -163 0
-458 -143 -156 -163 0
-458 165 0
-458 -141 172 0
-458 -142 173 0
-458 -143 174 0
-458 -186 0
-459 134 0
-459 -144 0
-459 -125 -141 -131 0
-459 -125 -142 -132 0
-459 -125 -143 -133 0
-459 -135 0
-459 -137 0
-459 -138 0
-459 -139 0
-459 -140 0
-459 -141 -146 -152 0
-459 -141 -146 -153 0
-459 -141 -146 -154 0
-459 -142 -146 -153 0
-459 -142 -146 -154 0
-459 -143 -146 -154 0
-459 -141 -147 -152 0
-459 -141 -147 -153 0
-459 -141 -147 -154 0
-459 -142 -147 -153 0
-459 -142 -147 -154 0
-459 -143 -147 -154 0
-459 -141 -156 -161 0
-459 -141 -156 -162 0
-459 -141 -156 -163 0
-459 -142 -156 -162 0
-459 -142 -156 -163 0
-459 -143 -156 -163 0
-459 -141 -157 -161 0
-459 -141 -157 -162 0
-459 -141 -157 -163 0
-459 -142 -157 -162 0
-459 -142 -157 -163 0
-459 -143 -157 -163 0
-459 166 0
-459 -141 172 0
-459 -142 173 0
-459 -143 174 0
-459 -186 0
-460 134 0
-460 -144 0
-460 -126 -141 -131 0
-460 -126 -142 -132 0
-460 -126 -143 -133 0
-460 -135 0
-460 -136 0
-460 -138 0
-460 -139 0
-460 -140 0
-460 -141 -147 -152 0
-460 -141 -147 -153 0
-460 -141 -147 -154 0
-460 -142 -147 -153 0
-460 -142 -147 -154 0
-460 -143 -147 -154 0
-460 -141 -148 -152 0
-460 -141 -148 -153 0
-460 -141 -148 -154 0
-460 -142 -148 -153 0
-460 -142 -148 -154 0
-460 -143 -148 -154 0
-460 -141 -156 -161 0
-460 -141 -156 -162 0
-460 -141 -156 -163 0
-460 -142 -156 -162 0
-460 -142 -156 -163 0
-460 -143 -156 -163 0
-460 -141 -157 -161 0
-460 -141 -157 -162 0
-460 -141 -157 -163 0
-460 -142 -157 -162 0
-460 -142 -157 -163 0
-460 -143 -157 -163 0
-460 -141 -158 -161 0
-460 -141 -158 -162 0
-460 -141 -158 -163 0
-460 -142 -158 -162 0
-460 -142 -158 -163 0
-460 -143 -158 -163 0
-460 167 0
-460 -141 172 0
-460 -142 173 0
-460 -143 174 0
-460 -186 0
-461 134 0
-461 -144 0
-461 -127 -141 -131 0
-461 -127 -142 -132 0
-461 -127 -143 -133 0
-461 -135 0
-461 -136 0
-461 -137 0
-461 -139 0
-461 -140 0
-461 -141 -148 -152 0
-461 -141 -148 -153 0
-461 -141 -148 -154 0
-461 -142 -148 -153 0
-461 -142 -148 -154 0
-461 -143 -148 -154 0
-461 -141 -149 -152 0
-461 -141 -149 -153 0
-461 -141 -149 -154 0
-461 -142 -149 -153 0
-461 -142 -149 -154 0
-461 -143 -149 -154 0
-461 -141 -157 -161 0
-461 -141 -157 -162 0
-461 -141 -157 -163 0
-461 -142 -157 -162 0
-461 -142 -157 -163 0
-461 -143 -157 -163 0
-461 -141 -158 -161 0
-461 -141 -158 -162 0
-461 -141 -158 -163 0
-461 -142 -158 -162 0
-461 -142 -158 -163 0
-461 -143 -158 -163 0
-461 -141 -159 -161 0
-461 -141 -159 -162 0
-461 -141 -159 -163 0
-461 -142 -159 -162 0
-461 -142 -159 -163 0
-461 -143 -159 -163 0
-461 168 0
-461 -141 172 0
-461 -142 173 0
-461 -143 174 0
-461 -186 0
-462 134 0
-462 -144 0
-462 -128 -141 -131 0
-462 -128 -142 -132 0
-462 -128 -143 -133 0
-462 -135 0
-462 -136 0
-462 -137 0
-462 -138 0
-462 -140 0
-462 -141 -149 -152 0
-462 -141 -149 -153 0
-462 -141 -149 -154 0
-462 -142 -149 -153 0
-462 -142 -149 -154 0
-462 -143 -149 -154 0
-462 -141 -150 -152 0
-462 -141 -150 -153 0
-462 -141 -150 -154 0
-462 -142 -150 -153 0
-462 -142 -150 -154 0
-462 -143 -150 -154 0
-462 -141 -158 -161 0
-462 -141 -158 -162 0
-462 -141 -158 -163 0
-462 -142 -158 -162 0
-462 -142 -158 -163 0
-462 -143 -158 -163 0
-462 -141 -159 -161 0
-462 -141 -159 -162 0
-462 -141 -159 -163 0
-462 -142 -159 -162 0
-462 -142 -159 -163 0
-462 -143 -159 -163 0
-462 169 0
-462 -141 172 0
-462 -142 173 0
-462 -143 174 0
-462 -186 0
-463 134 0
-463 -144 0
-463 -129 -141 -131 0
-463 -129 -142 -132 0
-463 -129 -143 -133 0
-463 -135 0
-463 -136 0
-463 -137 0
-463 -138 0
-463 -139 0
-463 -141 -150 -152 0
-463 -141 -150 -153 0
-463 -141 -150 -154 0
-463 -142 -150 -153 0
-463 -142 -150 -154 0
-463 -143 -150 -154 0
-463 -141 -159 -161 0
-463 -141 -159 -162 0
-463 -141 -159 -163 0
-463 -142 -159 -162 0
-463 -142 -159 -163 0
-463 -143 -159 -163 0
-463 170 0
-463 -141 172 0
-463 -142 173 0
-463 -143 174 0
-463 -186 0
-464 134 0
-464 -154 0
-464 -124 -151 -131 0
-464 -124 -152 -132 0
-464 -124 -153 -133 0
-464 -147 0
-464 -148 0
-464 -149 0
-464 -150 0
-464 -151 -135 -142 0
-464 -151 -135 -143 0
-464 -151 -135 -144 0
-464 -152 -135 -143 0
-464 -152 -135 -144 0
-464 -153 -135 -144 0
-464 -151 -156 -161 0
-464 -151 -156 -162 0
-464 -151 -156 -163 0
-464 -152 -156 -162 0
-464 -152 -156 -163 0
-464 -153 -156 -163 0
-464 165 0
-464 -151 172 0
-464 -152 173 0
-464 -153 174 0
-464 -196 0
-465 134 0
-465 -154 0
-465 -125 -151 -131 0
-465 -125 -152 -132 0
-465 -125 -153 -133 0
-465 -148 0
-465 -149 0
-465 -150 0
-465 -151 -136 -142 0
-465 -151 -136 -143 0
-465 -151 -136 -144 0
-465 -152 -136 -143 0
-465 -152 -136 -144 0
-465 -153 -136 -144 0
-465 -151 -156 -161 0
-465 -151 -156 -162 0
-465 -151 -156 -163 0
-465 -152 -156 -162 0
-465 -152 -156 -163 0
-465 -153 -156 -163 0
-465 -151 -157 -161 0
-465 -151 -157 -162 0
-465 -151 -157 -163 0
-465 -152 -157 -162 0
-465 -152 -157 -163 0
-465 -153 -157 -163 0
-465 166 0
-465 -151 172 0
-465 -152 173 0
-465 -153 174 0
-465 -196 0
-466 134 0
-466 -154 0
-466 -126 -151 -131 0
-466 -126 -152 -132 0
-466 -126 -153 -133 0
-466 -146 0
-466 -149 0
-466 -150 0
-466 -151 -137 -142 0
-466 -151 -137 -143 0
-466 -151 -137 -144 0
-466 -152 -137 -143 0
-466 -152 -137 -144 0
-466 -153 -137 -144 0
-466 -151 -156 -161 0
-466 -151 -156 -162 0
-466 -151 -156 -163 0
-466 -152 -156 -162 0
-466 -152 -156 -163 0
-466 -153 -156 -163 0
-466 -151 -157 -161 0
-466 -151 -157 -162 0
-466 -151 -157 -163 0
-466 -152 -157 -162 0
-466 -152 -157 -163 0
-466 -153 -157 -163 0
-466 -151 -158 -161 0
-466 -151 -158 -162 0
-466 -151 -158 -163 0
-466 -152 -158 -162 0
-466 -152 -158 -163 0
-466 -153 -158 -163 0
-466 167 0
-466 -151 172 0
-466 -152 173 0
-466 -153 174 0
-466 -196 0
-467 134 0
-467 -154 0
-467 -127 -151 -131 0
-467 -127 -152 -132 0
-467 -127 -153 -133 0
-467 -146 0
-467 -147 0
-467 -150 0
-467 -151 -138 -142 0
-467 -151 -138 -143 0
-467 -151 -138 -144 0
-467 -152 -138 -143 0
-467 -152 -138 -144 0
-467 -153 -138 -144 0
-467 -151 -157 -161 0
-467 -151 -157 -162 0
-467 -151 -157 -163 0
-467 -152 -157 -162 0
-467 -152 -157 -163 0
-467 -153 -157 -163 0
-467 -151 -158 -161 0
-467 -151 -158 -162 0
-467 -151 -158 -163 0
-467 -152 -158 -162 0
-467 -152 -158 -163 0
-467 -153 -158 -163 0
-467 -151 -159 -161 0
-467 -151 -159 -162 0
-467 -151 -159 -163 0
-467 -152 -159 -162 0
-467 -152 -159 -163 0
-467 -153 -159 -163 0
-467 168 0
-467 -151 172 0
-467 -152 173 0
-467 -153 174 0
-467 -196 0
-468 134 0
-468 -154 0
-468 -128 -151 -131 0
-468 -128 -152 -132 0
-468 -128 -153 -133 0
-468 -146 0
-468 -147 0
-468 -148 0
-468 -151 -139 -142 0
-468 -151 -139 -143 0
-468 -151 -139 -144 0
-468 -152 -139 -143 0
-468 -152 -139 -144 0
-468 -153 -139 -144 0
-468 -151 -158 -161 0
-468 -151 -158 -162 0
-468 -151 -158 -163 0
-468 -152 -158 -162 0
-468 -152 -158 -163 0
-468 -153 -158 -163 0
-468 -151 -159 -161 0
-468 -151 -159 -162 0
-468 -151 -159 -163 0
-468 -152 -159 -162 0
-468 -152 -159 -163 0
-468 -153 -159 -163 0
-468 169 0
-468 -151 172 0
-468 -152 173 0
-468 -153 174 0
-468 -196 0
-469 134 0
-469 -154 0
-469 -129 -151 -131 0
-469 -129 -152 -132 0
-469 -129 -153 -133 0
-469 -146 0
-469 -147 0
-469 -148 0
-469 -149 0
-469 -151 -140 -142 0
-469 -151 -140 -143 0
-469 -151 -140 -144 0
-469 -152 -140 -143 0
-469 -152 -140 -144 0
-469 -153 -140 -144 0
-469 -151 -159 -161 0
-469 -151 -159 -162 0
-469 -151 -159 -163 0
-469 -152 -159 -162 0
-469 -152 -159 -163 0
-469 -153 -159 -163 0
-469 170 0
-469 -151 172 0
-469 -152 173 0
-469 -153 174 0
-469 -196 0
-470 134 0
-470 -163 0
-470 -124 -160 -131 0
-470 -124 -161 -132 0
-470 -124 -162 -133 0
-470 -157 0
-470 -158 0
-470 -159 0
-470 -160 -135 -142 0
-470 -160 -135 -143 0
-470 -160 -135 -144 0
-470 -161 -135 -143 0
-470 -161 -135 -144 0
-470 -162 -135 -144 0
-470 -160 -146 -152 0
-470 -160 -146 -153 0
-470 -160 -146 -154 0
-470 -161 -146 -153 0
-470 -161 -146 -154 0
-470 -162 -146 -154 0
-470 165 0
-470 -160 172 0
-470 -161 173 0
-470 -162 174 0
-470 -205 0
-471 134 0
-471 -163 0
-471 -125 -160 -131 0
-471 -125 -161 -132 0
-471 -125 -162 -133 0
-471 -158 0
-471 -159 0
-471 -160 -136 -142 0
-471 -160 -136 -143 0
-471 -160 -136 -144 0
-471 -161 -136 -143 0
-471 -161 -136 -144 0
-471 -162 -136 -144 0
-471 -160 -146 -152 0
-471 -160 -146 -153 0
-471 -160 -146 -154 0
-471 -161 -146 -153 0
-471 -161 -146 -154 0
-471 -162 -146 -154 0
-471 -160 -147 -152 0
-471 -160 -147 -153 0
-471 -160 -147 -154 0
-471 -161 -147 -153 0
-471 -161 -147 -154 0
-471 -162 -147 -154 0
-471 166 0
-471 -160 172 0
-471 -161 173 0
-471 -162 174 0
-471 -205 0
-472 134 0
-472 -163 0
-472 -126 -160 -131 0
-472 -126 -161 -132 0
-472 -126 -162 -133 0
-472 -159 0
-472 -160 -137 -142 0
-472 -160 -137 -143 0
-472 -160 -137 -144 0
-472 -161 -137 -143 0
-472 -161 -137 -144 0
-472 -162 -137 -144 0
-472 -160 -147 -152 0
-472 -160 -147 -153 0
-472 -160 -147 -154 0
-472 -161 -147 -153 0
-472 -161 -147 -154 0
-472 -162 -147 -154 0
-472 -160 -148 -152 0
-472 -160 -148 -153 0
-472 -160 -148 -154 0
-472 -161 -148 -153 0
-472 -161 -148 -154 0
-472 -162 -148 -154 0
-472 167 0
-472 -160 172 0
-472 -161 173 0
-472 -162 174 0
-472 -205 0
-473 134 0
-473 -163 0
-473 -127 -160 -131 0
-473 -127 -161 -132 0
-473 -127 -162 -133 0
-473 -156 0
-473 -160 -138 -142 0
-473 -160 -138 -143 0
-473 -160 -138 -144 0
-473 -161 -138 -143 0
-473 -161 -138 -144 0
-473 -162 -138 -144 0
-473 -160 -148 -152 0
-473 -160 -148 -153 0
-473 -160 -148 -154 0
-473 -161 -148 -153 0
-473 -161 -148 -154 0
-473 -162 -148 -154 0
-473 -160 -149 -152 0
-473 -160 -149 -153 0
-473 -160 -149 -154 0
-473 -161 -149 -153 0
-473 -161 -149 -154 0
-473 -162 -149 -154 0
-473 168 0
-473 -160 172 0
-473 -161 173 0
-473 -162 174 0
-473 -205 0
-474 134 0
-474 -163 0
-474 -128 -160 -131 0
-474 -128 -161 -132 0
-474 -128 -162 -133 0
-474 -156 0
-474 -157 0
-474 -160 -139 -142 0
-474 -160 -139 -143 0
-474 -160 -139 -144 0
-474 -161 -139 -143 0
-474 -161 -139 -144 0
-474 -162 -139 -144 0
-474 -160 -149 -152 0
-474 -160 -149 -153 0
-474 -160 -149 -154 0
-474 -161 -149 -153 0
-474 -161 -149 -154 0
-474 -162 -149 -154 0
-474 -160 -150 -152 0
-474 -160 -150 -153 0
-474 -160 -150 -154 0
-474 -161 -150 -153 0
-474 -161 -150 -154 0
-474 -162 -150 -154 0
-474 169 0
-474 -160 172 0
-474 -161 173 0
-474 -162 174 0
-474 -205 0
-475 134 0
-475 -163 0
-475 -129 -160 -131 0
-475 -129 -161 -132 0
-475 -129 -162 -133 0
-475 -156 0
-475 -157 0
-475 -158 0
-475 -160 -140 -142 0
-475 -160 -140 -143 0
-475 -160 -140 -144 0
-475 -161 -140 -143 0
-475 -161 -140 -144 0
-475 -162 -140 -144 0
-475 -160 -150 -152 0
-475 -160 -150 -153 0
-475 -160 -150 -154 0
-475 -161 -150 -153 0
-475 -161 -150 -154 0
-475 -162 -150 -154 0
-475 170 0
-475 -160 172 0
-475 -161 173 0
-475 -162 174 0
-475 -205 0
-476 134 0
-476 -124 -130 0
-476 -135 -141 0
-476 -135 -142 0
-476 -135 -143 0
-476 -135 -144 0
-476 -146 -151 0
-476 -146 -152 0
-476 -146 -153 0
-476 -146 -154 0
-476 -156 -160 0
-476 -156 -161 0
-476 -156 -162 0
-476 -156 -163 0
-476 165 0
-476 171 0
-477 134 0
-477 -125 -130 0
-477 -136 -141 0
-477 -136 -142 0
-477 -136 -143 0
-477 -136 -144 0
-477 -146 -151 0
-477 -146 -152 0
-477 -146 -153 0
-477 -146 -154 0
-477 -147 -151 0
-477 -147 -152 0
-477 -147 -153 0
-477 -147 -154 0
-477 -156 -160 0
-477 -156 -161 0
-477 -156 -162 0
-477 -156 -163 0
-477 -157 -160 0
-477 -157 -161 0
-477 -157 -162 0
-477 -157 -163 0
-477 166 0
-477 171 0
-478 134 0
-478 -126 -130 0
-478 -137 -141 0
-478 -137 -142 0
-478 -137 -143 0
-478 -137 -144 0
-478 -147 -151 0
-478 -147 -152 0
-478 -147 -153 0
-478 -147 -154 0
-478 -148 -151 0
-478 -148 -152 0
-478 -148 -153 0
-478 -148 -154 0
-478 -156 -160 0
-478 -156 -161 0
-478 -156 -162 0
-478 -156 -163 0
-478 -157 -160 0
-478 -157 -161 0
-478 -157 -162 0
-478 -157 -163 0
-478 -158 -160 0
-478 -158 -161 0
-478 -158 -162 0
-478 -158 -163 0
-478 167 0
-478 171 0
-479 134 0
-479 -127 -130 0
-479 -138 -141 0
-479 -138 -142 0
-479 -138 -143 0
-479 -138 -144 0
-479 -148 -151 0
-479 -148 -152 0
-479 -148 -153 0
-479 -148 -154 0
-479 -149 -151 0
-479 -149 -152 0
-479 -149 -153 0
-479 -149 -154 0
-479 -157 -160 0
-479 -157 -161 0
-479 -157 -162 0
-479 -157 -163 0
-479 -158 -160 0
-479 -158 -161 0
-479 -158 -162 0
-479 -158 -163 0
-479 -159 -160 0
-479 -159 -161 0
-479 -159 -162 0
-479 -159 -163 0
-479 168 0
-479 171 0
-480 134 0
-480 -128 -130 0
-480 -139 -141 0
-480 -139 -142 0
-480 -139 -143 0
-480 -139 -144 0
-480 -149 -151 0
-480 -149 -152 0
-480 -149 -153 0
-480 -149 -154 0
-480 -150 -151 0
-480 -150 -152 0
-480 -150 -153 0
-480 -150 -154 0
-480 -158 -160 0
-480 -158 -161 0
-480 -158 -162 0
-480 -158 -163 0
-480 -159 -160 0
-480 -159 -161 0
-480 -159 -162 0
-480 -159 -163 0
-480 169 0
-480 171 0
-481 134 0
-481 -129 -130 0
-481 -140 -141 0
-481 -140 -142 0
-481 -140 -143 0
-481 -140 -144 0
-481 -150 -151 0
-481 -150 -152 0
-481 -150 -153 0
-481 -150 -154 0
-481 -159 -160 0
-481 -159 -161 0
-481 -159 -162 0
-481 -159 -163 0
-481 170 0
-481 171 0
-482 145 0
-482 -133 0
-482 -135 -130 -142 0
-482 -135 -131 -143 0
-482 -135 -132 -144 0
-482 -125 0
-482 -126 0
-482 -127 0
-482 -128 0
-482 -129 0
-482 -130 -146 -152 0
-482 -130 -146 -153 0
-482 -130 -146 -154 0
-482 -131 -146 -153 0
-482 -131 -146 -154 0
-482 -132 -146 -154 0
-482 -130 -156 -161 0
-482 -130 -156 -162 0
-482 -130 -156 -163 0
-482 -131 -156 -162 0
-482 -131 -156 -163 0
-482 -132 -156 -163 0
-482 176 0
-482 -130 183 0
-482 -131 184 0
-482 -132 185 0
-482 -175 0
-483 145 0
-483 -133 0
-483 -136 -130 -142 0
-483 -136 -131 -143 0
-483 -136 -132 -144 0
-483 -124 0
-483 -126 0
-483 -127 0
-483 -128 0
-483 -129 0
-483 -130 -146 -152 0
-483 -130 -146 -153 0
-483 -130 -146 -154 0
-483 -131 -146 -153 0
-483 -131 -146 -154 0
-483 -132 -146 -154 0
-483 -130 -147 -152 0
-483 -130 -147 -153 0
-483 -130 -147 -154 0
-483 -131 -147 -153 0
-483 -131 -147 -154 0
-483 -132 -147 -154 0
-483 -130 -156 -161 0
-483 -130 -156 -162 0
-483 -130 -156 -163 0
-483 -131 -156 -162 0
-483 -131 -156 -163 0
-483 -132 -156 -163 0
-483 -130 -157 -161 0
-483 -130 -157 -162 0
-483 -130 -157 -163 0
-483 -131 -157 -162 0
-483 -131 -157 -163 0
-483 -132 -157 -163 0
-483 177 0
-483 -130 183 0
-483 -131 184 0
-483 -132 185 0
-483 -175 0
-484 145 0
-484 -133 0
-484 -137 -130 -142 0
-484 -137 -131 -143 0
-484 -137 -132 -144 0
-484 -124 0
-484 -125 0
-484 -127 0
-484 -128 0
-484 -129 0
-484 -130 -147 -152 0
-484 -130 -147 -153 0
-484 -130 -147 -154 0
-484 -131 -147 -153 0
-484 -131 -147 -154 0
-484 -132 -147 -154 0
-484 -130 -148 -152 0
-484 -130 -148 -153 0
-484 -130 -148 -154 0
-484 -131 -148 -153 0
-484 -131 -148 -154 0
-484 -132 -148 -154 0
-484 -130 -156 -161 0
-484 -130 -156 -162 0
-484 -130 -156 -163 0
-484 -131 -156 -162 0
-484 -131 -156 -163 0
-484 -132 -156 -163 0
-484 -130 -157 -161 0
-484 -130 -157 -162 0
-484 -130 -157 -163 0
-484 -131 -157 -162 0
-484 -131 -157 -163 0
-484 -132 -157 -163 0
-484 -130 -158 -161 0
-484 -130 -158 -162 0
-484 -130 -158 -163 0
-484 -131 -158 -162 0
-484 -131 -158 -163 0
-484 -132 -158 -163 0
-484 178 0
-484 -130 183 0
-484 -131 184 0
-484 -132 185 0
-484 -175 0
-485 145 0
-485 -133 0
-485 -138 -130 -142 0
-485 -138 -131 -143 0
-485 -138 -132 -144 0
-485 -124 0
-485 -125 0
-485 -126 0
-485 -128 0
-485 -129 0
-485 -130 -148 -152 0
-485 -130 -148 -153 0
-485 -130 -148 -154 0
-485 -131 -148 -153 0
-485 -131 -148 -154 0
-485 -132 -148 -154 0
-485 -130 -149 -152 0
-485 -130 -149 -153 0
-485 -130 -149 -154 0
-485 -131 -149 -153 0
-485 -131 -149 -154 0
-485 -132 -149 -154 0
-485 -130 -157 -161 0
-485 -130 -157 -162 0
-485 -130 -157 -163 0
-485 -131 -157 -162 0
-485 -131 -157 -163 0
-485 -132 -157 -163 0
-485 -130 -158 -161 0
-485 -130 -158 -162 0
-485 -130 -158 -163 0
-485 -131 -158 -162 0
-485 -131 -158 -163 0
-485 -132 -158 -163 0
-485 -130 -159 -161 0
-485 -130 -159 -162 0
-485 -130 -159 -163 0
-485 -131 -159 -162 0
-485 -131 -159 -163 0
-485 -132 -159 -163 0
-485 179 0
-485 -130 183 0
-485 -131 184 0
-485 -132 185 0
-485 -175 0
-486 145 0
-486 -133 0
-486 -139 -130 -142 0
-486 -139 -131 -143 0
-486 -139 -132 -144 0
-486 -124 0
-486 -125 0
-486 -126 0
-486 -127 0
-486 -129 0
-486 -130 -149 -152 0
-486 -130 -149 -153 0
-486 -130 -149 -154 0
-486 -131 -149 -153 0
-486 -131 -149 -154 0
-486 -132 -149 -154 0
-486 -130 -150 -152 0
-486 -130 -150 -153 0
-486 -130 -150 -154 0
-486 -131 -150 -153 0
-486 -131 -150 -154 0
-486 -132 -150 -154 0
-486 -130 -158 -161 0
-486 -130 -158 -162 0
-486 -130 -158 -163 0
-486 -131 -158 -162 0
-486 -131 -158 -163 0
-486 -132 -158 -163 0
-486 -130 -159 -161 0
-486 -130 -159 -162 0
-486 -130 -159 -163 0
-486 -131 -159 -162 0
-486 -131 -159 -163 0
-486 -132 -159 -163 0
-486 180 0
-486 -130 183 0
-486 -131 184 0
-486 -132 185 0
-486 -175 0
-487 145 0
-487 -133 0
-487 -140 -130 -142 0
-487 -140 -131 -143 0
-487 -140 -132 -144 0
-487 -124 0
-487 -125 0
-487 -126 0
-487 -127 0
-487 -128 0
-487 -130 -150 -152 0
-487 -130 -150 -153 0
-487 -130 -150 -154 0
-487 -131 -150 -153 0
-487 -131 -150 -154 0
-487 -132 -150 -154 0
-487 -130 -159 -161 0
-487 -130 -159 -162 0
-487 -130 -159 -163 0
-487 -131 -159 -162 0
-487 -131 -159 -163 0
-487 -132 -159 -163 0
-487 181 0
-487 -130 183 0
-487 -131 184 0
-487 -132 185 0
-487 -175 0
-488 145 0
-488 -154 0
-488 -135 -151 -142 0
-488 -135 -152 -143 0
-488 -135 -153 -144 0
-488 -147 0
-488 -148 0
-488 -149 0
-488 -150 0
-488 -151 -124 -131 0
-488 -151 -124 -132 0
-488 -151 -124 -133 0
-488 -152 -124 -132 0
-488 -152 -124 -133 0
-488 -153 -124 -133 0
-488 -151 -156 -161 0
-488 -151 -156 -162 0
-488 -151 -156 -163 0
-488 -152 -156 -162 0
-488 -152 -156 -163 0
-488 -153 -156 -163 0
-488 176 0
-488 -151 183 0
-488 -152 184 0
-488 -153 185 0
-488 -196 0
-489 145 0
-489 -154 0
-489 -136 -151 -142 0
-489 -136 -152 -143 0
-489 -136 -153 -144 0
-489 -148 0
-489 -149 0
-489 -150 0
-489 -151 -125 -131 0
-489 -151 -125 -132 0
-489 -151 -125 -133 0
-489 -152 -125 -132 0
-489 -152 -125 -133 0
-489 -153 -125 -133 0
-489 -151 -156 -161 0
-489 -151 -156 -162 0
-489 -151 -156 -163 0
-489 -152 -156 -162 0
-489 -152 -156 -163 0
-489 -153 -156 -163 0
-489 -151 -157 -161 0
-489 -151 -157 -162 0
-489 -151 -157 -163 0
-489 -152 -157 -162 0
-489 -152 -157 -163 0
-489 -153 -157 -163 0
-489 177 0
-489 -151 183 0
-489 -152 184 0
-489 -153 185 0
-489 -196 0
-490 145 0
-490 -154 0
-490 -137 -151 -142 0
-490 -137 -152 -143 0
-490 -137 -153 -144 0
-490 -146 0
-490 -149 0
-490 -150 0
-490 -151 -126 -131 0
-490 -151 -126 -132 0
-490 -151 -126 -133 0
-490 -152 -126 -132 0
-490 -152 -126 -133 0
-490 -153 -126 -133 0
-490 -151 -156 -161 0
-490 -151 -156 -162 0
-490 -151 -156 -163 0
-490 -152 -156 -162 0
-490 -152 -156 -163 0
-490 -153 -156 -163 0
-490 -151 -157 -161 0
-490 -151 -157 -162 0
-490 -151 -157 -163 0
-490 -152 -157 -162 0
-490 -152 -157 -163 0
-490 -153 -157 -163 0
-490 -151 -158 -161 0
-490 -151 -158 -162 0
-490 -151 -158 -163 0
-490 -152 -158 -162 0
-490 -152 -158 -163 0
-490 -153 -158 -163 0
-490 178 0
-490 -151 183 0
-490 -152 184 0
-490 -153 185 0
-490 -196 0
-491 145 0
-491 -154 0
-491 -138 -151 -142 0
-491 -138 -152 -143 0
-491 -138 -153 -144 0
-491 -146 0
-491 -147 0
-491 -150 0
-491 -151 -127 -131 0
-491 -151 -127 -132 0
-491 -151 -127 -133 0
-491 -152 -127 -132 0
-491 -152 -127 -133 0
-491 -153 -127 -133 0
-491 -151 -157 -161 0
-491 -151 -157 -162 0
-491 -151 -157 -163 0
-491 -152 -157 -162 0
-491 -152 -157 -163 0
-491 -153 -157 -163 0
-491 -151 -158 -161 0
-491 -151 -158 -162 0
-491 -151 -158 -163 0
-491 -152 -158 -162 0
-491 -152 -158 -163 0
-491 -153 -158 -163 0
-491 -151 -159 -161 0
-491 -151 -159 -162 0
-491 -151 -159 -163 0
-491 -152 -159 -162 0
-491 -152 -159 -163 0
-491 -153 -159 -163 0
-491 179 0
-491 -151 183 0
-491 -152 184 0
-491 -153 185 0
-491 -196 0
-492 145 0
-492 -154 0
-492 -139 -151 -142 0
-492 -139 -152 -143 0
-492 -139 -153 -144 0
-492 -146 0
-492 -147 0
-492 -148 0
-492 -151 -128 -131 0
-492 -151 -128 -132 0
-492 -151 -128 -133 0
-492 -152 -128 -132 0
-492 -152 -128 -133 0
-492 -153 -128 -133 0
-492 -151 -158 -161 0
-492 -151 -158 -162 0
-492 -151 -158 -163 0
-492 -152 -158 -162 0
-492 -152 -158 -163 0
-492 -153 -158 -163 0
-492 -151 -159 -161 0
-492 -151 -159 -162 0
-492 -151 -159 -163 0
-492 -152 -159 -162 0
-492 -152 -159 -163 0
-492 -153 -159 -163 0
-492 180 0
-492 -151 183 0
-492 -152 184 0
-492 -153 185 0
-492 -196 0
-493 145 0
-493 -154 0
-493 -140 -151 -142 0
-493 -140 -152 -143 0
-493 -140 -153 -144 0
-493 -146 0
-493 -147 0
-493 -148 0
-493 -149 0
-493 -151 -129 -131 0
-493 -151 -129 -132 0
-493 -151 -129 -133 0
-493 -152 -129 -132 0
-493 -152 -129 -133 0
-493 -153 -129 -133 0
-493 -151 -159 -161 0
-493 -151 -159 -162 0
-493 -151 -159 -163 0
-493 -152 -159 -162 0
-493 -152 -159 -163 0
-493 -153 -159 -163 0
-493 181 0
-493 -151 183 0
-493 -152 184 0
-493 -153 185 0
-493 -196 0
-494 145 0
-494 -163 0
-494 -135 -160 -142 0
-494 -135 -161 -143 0
-494 -135 -162 -144 0
-494 -157 0
-494 -158 0
-494 -159 0
-494 -160 -124 -131 0
-494 -160 -124 -132 0
-494 -160 -124 -133 0
-494 -161 -124 -132 0
-494 -161 -124 -133 0
-494 -162 -124 -133 0
-494 -160 -146 -152 0
-494 -160 -146 -153 0
-494 -160 -146 -154 0
-494 -161 -146 -153 0
-494 -161 -146 -154 0
-494 -162 -146 -154 0
-494 176 0
-494 -160 183 0
-494 -161 184 0
-494 -162 185 0
-494 -205 0
-495 145 0
-495 -163 0
-495 -136 -160 -142 0
-495 -136 -161 -143 0
-495 -136 -162 -144 0
-495 -158 0
-495 -159 0
-495 -160 -125 -131 0
-495 -160 -125 -132 0
-495 -160 -125 -133 0
-495 -161 -125 -132 0
-495 -161 -125 -133 0
-495 -162 -125 -133 0
-495 -160 -146 -152 0
-495 -160 -146 -153 0
-495 -160 -146 -154 0
-495 -161 -146 -153 0
-495 -161 -146 -154 0
-495 -162 -146 -154 0
-495 -160 -147 -152 0
-495 -160 -147 -153 0
-495 -160 -147 -154 0
-495 -161 -147 -153 0
-495 -161 -147 -154 0
-495 -162 -147 -154 0
-495 177 0
-495 -160 183 0
-495 -161 184 0
-495 -162 185 0
-495 -205 0
-496 145 0
-496 -163 0
-496 -137 -160 -142 0
-496 -137 -161 -143 0
-496 -137 -162 -144 0
-496 -159 0
-496 -160 -126 -131 0
-496 -160 -126 -132 0
-496 -160 -126 -133 0
-496 -161 -126 -132 0
-496 -161 -126 -133 0
-496 -162 -126 -133 0
-496 -160 -147 -152 0
-496 -160 -147 -153 0
-496 -160 -147 -154 0
-496 -161 -147 -153 0
-496 -161 -147 -154 0
-496 -162 -147 -154 0
-496 -160 -148 -152 0
-496 -160 -148 -153 0
-496 -160 -148 -154 0
-496 -161 -148 -153 0
-496 -161 -148 -154 0
-496 -162 -148 -154 0
-496 178 0
-496 -160 183 0
-496 -161 184 0
-496 -162 185 0
-496 -205 0
-497 145 0
-497 -163 0
-497 -138 -160 -142 0
-497 -138 -161 -143 0
-497 -138 -162 -144 0
-497 -156 0
-497 -160 -127 -131 0
-497 -160 -127 -132 0
-497 -160 -127 -133 0
-497 -161 -127 -132 0
-497 -161 -127 -133 0
-497 -162 -127 -133 0
-497 -160 -148 -152 0
-497 -160 -148 -153 0
-497 -160 -148 -154 0
-497 -161 -148 -153 0
-497 -161 -148 -154 0
-497 -162 -148 -154 0
-497 -160 -149 -152 0
-497 -160 -149 -153 0
-497 -160 -149 -154 0
-497 -161 -149 -153 0
-497 -161 -149 -154 0
-497 -162 -149 -154 0
-497 179 0
-497 -160 183 0
-497 -161 184 0
-497 -162 185 0
-497 -205 0
-498 145 0
-498 -163 0
-498 -139 -160 -142 0
-498 -139 -161 -143 0
-498 -139 -162 -144 0
-498 -156 0
-498 -157 0
-498 -160 -128 -131 0
-498 -160 -128 -132 0
-498 -160 -128 -133 0
-498 -161 -128 -132 0
-498 -161 -128 -133 0
-498 -162 -128 -133 0
-498 -160 -149 -152 0
-498 -160 -149 -153 0
-498 -160 -149 -154 0
-498 -161 -149 -153 0
-498 -161 -149 -154 0
-498 -162 -149 -154 0
-498 -160 -150 -152 0
-498 -160 -150 -153 0
-498 -160 -150 -154 0
-498 -161 -150 -153 0
-498 -161 -150 -154 0
-498 -162 -150 -154 0
-498 180 0
-498 -160 183 0
-498 -161 184 0
-498 -162 185 0
-498 -205 0
-499 145 0
-499 -163 0
-499 -140 -160 -142 0
-499 -140 -161 -143 0
-499 -140 -162 -144 0
-499 -156 0
-499 -157 0
-499 -158 0
-499 -160 -129 -131 0
-499 -160 -129 -132 0
-499 -160 -129 -133 0
-499 -161 -129 -132 0
-499 -161 -129 -133 0
-499 -162 -129 -133 0
-499 -160 -150 -152 0
-499 -160 -150 -153 0
-499 -160 -150 -154 0
-499 -161 -150 -153 0
-499 -161 -150 -154 0
-499 -162 -150 -154 0
-499 181 0
-499 -160 183 0
-499 -161 184 0
-499 -162 185 0
-499 -205 0
-500 145 0
-500 -135 -141 0
-500 -124 -130 0
-500 -124 -131 0
-500 -124 -132 0
-500 -124 -133 0
-500 -146 -151 0
-500 -146 -152 0
-500 -146 -153 0
-500 -146 -154 0
-500 -156 -160 0
-500 -156 -161 0
-500 -156 -162 0
-500 -156 -163 0
-500 176 0
-500 182 0
-501 145 0
-501 -136 -141 0
-501 -125 -130 0
-501 -125 -131 0
-501 -125 -132 0
-501 -125 -133 0
-501 -146 -151 0
-501 -146 -152 0
-501 -146 -153 0
-501 -146 -154 0
-501 -147 -151 0
-501 -147 -152 0
-501 -147 -153 0
-501 -147 -154 0
-501 -156 -160 0
-501 -156 -161 0
-501 -156 -162 0
-501 -156 -163 0
-501 -157 -160 0
-501 -157 -161 0
-501 -157 -162 0
-501 -157 -163 0
-501 177 0
-501 182 0
-502 145 0
-502 -137 -141 0
-502 -126 -130 0
-502 -126 -131 0
-502 -126 -132 0
-502 -126 -133 0
-502 -147 -151 0
-502 -147 -152 0
-502 -147 -153 0
-502 -147 -154 0
-502 -148 -151 0
-502 -148 -152 0
-502 -148 -153 0
-502 -148 -154 0
-502 -156 -160 0
-502 -156 -161 0
-502 -156 -162 0
-502 -156 -163 0
-502 -157 -160 0
-502 -157 -161 0
-502 -157 -162 0
-502 -157 -163 0
-502 -158 -160 0
-502 -158 -161 0
-502 -158 -162 0
-502 -158 -163 0
-502 178 0
-502 182 0
-503 145 0
-503 -138 -141 0
-503 -127 -130 0
-503 -127 -131 0
-503 -127 -132 0
-503 -127 -133 0
-503 -148 -151 0
-503 -148 -152 0
-503 -148 -153 0
-503 -148 -154 0
-503 -149 -151 0
-503 -149 -152 0
-503 -149 -153 0
-503 -149 -154 0
-503 -157 -160 0
-503 -157 -161 0
-503 -157 -162 0
-503 -157 -163 0
-503 -158 -160 0
-503 -158 -161 0
-503 -158 -162 0
-503 -158 -163 0
-503 -159 -160 0
-503 -159 -161 0
-503 -159 -162 0
-503 -159 -163 0
-503 179 0
-503 182 0
-504 145 0
-504 -139 -141 0
-504 -128 -130 0
-504 -128 -131 0
-504 -128 -132 0
-504 -128 -133 0
-504 -149 -151 0
-504 -149 -152 0
-504 -149 -153 0
-504 -149 -154 0
-504 -150 -151 0
-504 -150 -152 0
-504 -150 -153 0
-504 -150 -154 0
-504 -158 -160 0
-504 -158 -161 0
-504 -158 -162 0
-504 -158 -163 0
-504 -159 -160 0
-504 -159 -161 0
-504 -159 -162 0
-504 -159 -163 0
-504 180 0
-504 182 0
-505 145 0
-505 -140 -141 0
-505 -129 -130 0
-505 -129 -131 0
-505 -129 -132 0
-505 -129 -133 0
-505 -150 -151 0
-505 -150 -152 0
-505 -150 -153 0
-505 -150 -154 0
-505 -159 -160 0
-505 -159 -161 0
-505 -159 -162 0
-505 -159 -163 0
-505 181 0
-505 182 0
-506 155 0
-506 -133 0
-506 -146 -130 -152 0
-506 -146 -131 -153 0
-506 -146 -132 -154 0
-506 -126 0
-506 -127 0
-506 -128 0
-506 -129 0
-506 -130 -135 -142 0
-506 -130 -135 -143 0
-506 -130 -135 -144 0
-506 -131 -135 -143 0
-506 -131 -135 -144 0
-506 -132 -135 -144 0
-506 -130 -136 -142 0
-506 -130 -136 -143 0
-506 -130 -136 -144 0
-506 -131 -136 -143 0
-506 -131 -136 -144 0
-506 -132 -136 -144 0
-506 -130 -156 -161 0
-506 -130 -156 -162 0
-506 -130 -156 -163 0
-506 -131 -156 -162 0
-506 -131 -156 -163 0
-506 -132 -156 -163 0
-506 -130 -157 -161 0
-506 -130 -157 -162 0
-506 -130 -157 -163 0
-506 -131 -157 -162 0
-506 -131 -157 -163 0
-506 -132 -157 -163 0
-506 187 0
-506 -130 193 0
-506 -131 194 0
-506 -132 195 0
-506 -175 0
-507 155 0
-507 -133 0
-507 -147 -130 -152 0
-507 -147 -131 -153 0
-507 -147 -132 -154 0
-507 -124 0
-507 -127 0
-507 -128 0
-507 -129 0
-507 -130 -136 -142 0
-507 -130 -136 -143 0
-507 -130 -136 -144 0
-507 -131 -136 -143 0
-507 -131 -136 -144 0
-507 -132 -136 -144 0
-507 -130 -137 -142 0
-507 -130 -137 -143 0
-507 -130 -137 -144 0
-507 -131 -137 -143 0
-507 -131 -137 -144 0
-507 -132 -137 -144 0
-507 -130 -156 -161 0
-507 -130 -156 -162 0
-507 -130 -156 -163 0
-507 -131 -156 -162 0
-507 -131 -156 -163 0
-507 -132 -156 -163 0
-507 -130 -157 -161 0
-507 -130 -157 -162 0
-507 -130 -157 -163 0
-507 -131 -157 -162 0
-507 -131 -157 -163 0
-507 -132 -157 -163 0
-507 -130 -158 -161 0
-507 -130 -158 -162 0
-507 -130 -158 -163 0
-507 -131 -158 -162 0
-507 -131 -158 -163 0
-507 -132 -158 -163 0
-507 188 0
-507 -130 193 0
-507 -131 194 0
-507 -132 195 0
-507 -175 0
-508 155 0
-508 -133 0
-508 -148 -130 -152 0
-508 -148 -131 -153 0
-508 -148 -132 -154 0
-508 -124 0
-508 -125 0
-508 -128 0
-508 -129 0
-508 -130 -137 -142 0
-508 -130 -137 -143 0
-508 -130 -137 -144 0
-508 -131 -137 -143 0
-508 -131 -137 -144 0
-508 -132 -137 -144 0
-508 -130 -138 -142 0
-508 -130 -138 -143 0
-508 -130 -138 -144 0
-508 -131 -138 -143 0
-508 -131 -138 -144 0
-508 -132 -138 -144 0
-508 -130 -156 -161 0
-508 -130 -156 -162 0
-508 -130 -156 -163 0
-508 -131 -156 -162 0
-508 -131 -156 -163 0
-508 -132 -156 -163 0
-508 -130 -157 -161 0
-508 -130 -157 -162 0
-508 -130 -157 -163 0
-508 -131 -157 -162 0
-508 -131 -157 -163 0
-508 -132 -157 -163 0
-508 -130 -158 -161 0
-508 -130 -158 -162 0
-508 -130 -158 -163 0
-508 -131 -158 -162 0
-508 -131 -158 -163 0
-508 -132 -158 -163 0
-508 -130 -159 -161 0
-508 -130 -159 -162 0
-508 -130 -159 -163 0
-508 -131 -159 -162 0
-508 -131 -159 -163 0
-508 -132 -159 -163 0
-508 189 0
-508 -130 193 0
-508 -131 194 0
-508 -132 195 0
-508 -175 0
-509 155 0
-509 -133 0
-509 -149 -130 -152 0
-509 -149 -131 -153 0
-509 -149 -132 -154 0
-509 -124 0
-509 -125 0
-509 -126 0
-509 -129 0
-509 -130 -138 -142 0
-509 -130 -138 -143 0
-509 -130 -138 -144 0
-509 -131 -138 -143 0
-509 -131 -138 -144 0
-509 -132 -138 -144 0
-509 -130 -139 -142 0
-509 -130 -139 -143 0
-509 -130 -139 -144 0
-509 -131 -139 -143 0
-509 -131 -139 -144 0
-509 -132 -139 -144 0
-509 -130 -157 -161 0
-509 -130 -157 -162 0
-509 -130 -157 -163 0
-509 -131 -157 -162 0
-509 -131 -157 -163 0
-509 -132 -157 -163 0
-509 -130 -158 -161 0
-509 -130 -158 -162 0
-509 -130 -158 -163 0
-509 -131 -158 -162 0
-509 -131 -158 -163 0
-509 -132 -158 -163 0
-509 -130 -159 -161 0
-509 -130 -159 -162 0
-509 -130 -159 -163 0
-509 -131 -159 -162 0
-509 -131 -159 -163 0
-509 -132 -159 -163 0
-509 190 0
-509 -130 193 0
-509 -131 194 0
-509 -132 195 0
-509 -175 0
-510 155 0
-510 -133 0
-510 -150 -130 -152 0
-510 -150 -131 -153 0
-510 -150 -132 -154 0
-510 -124 0
-510 -125 0
-510 -126 0
-510 -127 0
-510 -130 -139 -142 0
-510 -130 -139 -143 0
-510 -130 -139 -144 0
-510 -131 -139 -143 0
-510 -131 -139 -144 0
-510 -132 -139 -144 0
-510 -130 -140 -142 0
-510 -130 -140 -143 0
-510 -130 -140 -144 0
-510 -131 -140 -143 0
-510 -131 -140 -144 0
-510 -132 -140 -144 0
-510 -130 -158 -161 0
-510 -130 -158 -162 0
-510 -130 -158 -163 0
-510 -131 -158 -162 0
-510 -131 -158 -163 0
-510 -132 -158 -163 0
-510 -130 -159 -161 0
-510 -130 -159 -162 0
-510 -130 -159 -163 0
-510 -131 -159 -162 0
-510 -131 -159 -163 0
-510 -132 -159 -163 0
-510 191 0
-510 -130 193 0
-510 -131 194 0
-510 -132 195 0
-510 -175 0
-511 155 0
-511 -144 0
-511 -146 -141 -152 0
-511 -146 -142 -153 0
-511 -146 -143 -154 0
-511 -137 0
-511 -138 0
-511 -139 0
-511 -140 0
-511 -141 -124 -131 0
-511 -141 -124 -132 0
-511 -141 -124 -133 0
-511 -142 -124 -132 0
-511 -142 -124 -133 0
-511 -143 -124 -133 0
-511 -141 -125 -131 0
-511 -141 -125 -132 0
-511 -141 -125 -133 0
-511 -142 -125 -132 0
-511 -142 -125 -133 0
-511 -143 -125 -133 0
-511 -141 -156 -161 0
-511 -141 -156 -162 0
-511 -141 -156 -163 0
-511 -142 -156 -162 0
-511 -142 -156 -163 0
-511 -143 -156 -163 0
-511 -141 -157 -161 0
-511 -141 -157 -162 0
-511 -141 -157 -163 0
-511 -142 -157 -162 0
-511 -142 -157 -163 0
-511 -143 -157 -163 0
-511 187 0
-511 -141 193 0
-511 -142 194 0
-511 -143 195 0
-511 -186 0
-512 155 0
-512 -144 0
-512 -147 -141 -152 0
-512 -147 -142 -153 0
-512 -147 -143 -154 0
-512 -135 0
-512 -138 0
-512 -139 0
-512 -140 0
-512 -141 -125 -131 0
-512 -141 -125 -132 0
-512 -141 -125 -133 0
-512 -142 -125 -132 0
-512 -142 -125 -133 0
-512 -143 -125 -133 0
-512 -141 -126 -131 0
-512 -141 -126 -132 0
-512 -141 -126 -133 0
-512 -142 -126 -132 0
-512 -142 -126 -133 0
-512 -143 -126 -133 0
-512 -141 -156 -161 0
-512 -141 -156 -162 0
-512 -141 -156 -163 0
-512 -142 -156 -162 0
-512 -142 -156 -163 0
-512 -143 -156 -163 0
-512 -141 -157 -161 0
-512 -141 -157 -162 0
-512 -141 -157 -163 0
-512 -142 -157 -162 0
-512 -142 -157 -163 0
-512 -143 -157 -163 0
-512 -141 -158 -161 0
-512 -141 -158 -162 0
-512 -141 -158 -163 0
-512 -142 -158 -162 0
-512 -142 -158 -163 0
-512 -143 -158 -163 0
-512 188 0
-512 -141 193 0
-512 -142 194 0
-512 -143 195 0
-512 -186 0
-513 155 0
-513 -144 0
-513 -148 -141 -152 0
-513 -148 -142 -153 0
-513 -148 -143 -154 0
-513 -135 0
-513 -136 0
-513 -139 0
-513 -140 0
-513 -141 -126 -131 0
-513 -141 -126 -132 0
-513 -141 -126 -133 0
-513 -142 -126 -132 0
-513 -142 -126 -133 0
-513 -143 -126 -133 0
-513 -141 -127 -131 0
-513 -141 -127 -132 0
-513 -141 -127 -133 0
-513 -142 -127 -132 0
-513 -142 -127 -133 0
-513 -143 -127 -133 0
-513 -141 -156 -161 0
-513 -141 -156 -162 0
-513 -141 -156 -163 0
-513 -142 -156 -162 0
-513 -142 -156 -163 0
-513 -143 -156 -163 0
-513 -141 -157 -161 0
-513 -141 -157 -162 0
-513 -141 -157 -163 0
-513 -142 -157 -162 0
-513 -142 -157 -163 0
-513 -143 -157 -163 0
-513 -141 -158 -161 0
-513 -141 -158 -162 0
-513 -141 -158 -163 0
-513 -142 -158 -162 0
-513 -142 -158 -163 0
-513 -143 -158 -163 0
-513 -141 -159 -161 0
-513 -141 -159 -162 0
-513 -141 -159 -163 0
-513 -142 -159 -162 0
-513 -142 -159 -163 0
-513 -143 -159 -163 0
-513 189 0
-513 -141 193 0
-513 -142 194 0
-513 -143 195 0
-513 -186 0
-514 155 0
-514 -144 0
-514 -149 -141 -152 0
-514 -149 -142 -153 0
-514 -149 -143 -154 0
-514 -135 0
-514 -136 0
-514 -137 0
-514 -140 0
-514 -141 -127 -131 0
-514 -141 -127 -132 0
-514 -141 -127 -133 0
-514 -142 -127 -132 0
-514 -142 -127 -133 0
-514 -143 -127 -133 0
-514 -141 -128 -131 0
-514 -141 -128 -132 0
-514 -141 -128 -133 0
-514 -142 -128 -132 0
-514 -142 -128 -133 0
-514 -143 -128 -133 0
-514 -141 -157 -161 0
-514 -141 -157 -162 0
-514 -141 -157 -163 0
-514 -142 -157 -162 0
-514 -142 -157 -163 0
-514 -143 -157 -163 0
-514 -141 -158 -161 0
-514 -141 -158 -162 0
-514 -141 -158 -163 0
-514 -142 -158 -162 0
-514 -142 -158 -163 0
-514 -143 -158 -163 0
-514 -141 -159 -161 0
-514 -141 -159 -162 0
-514 -141 -159 -163 0
-514 -142 -159 -162 0
-514 -142 -159 -163 0
-514 -143 -159 -163 0
-514 190 0
-514 -141 193 0
-514 -142 194 0
-514 -143 195 0
-514 -186 0
-515 155 0
-515 -144 0
-515 -150 -141 -152 0
-515 -150 -142 -153 0
-515 -150 -143 -154 0
-515 -135 0
-515 -136 0
-515 -137 0
-515 -138 0
-515 -141 -128 -131 0
-515 -141 -128 -132 0
-515 -141 -128 -133 0
-515 -142 -128 -132 0
-515 -142 -128 -133 0
-515 -143 -128 -133 0
-515 -141 -129 -131 0
-515 -141 -129 -132 0
-515 -141 -129 -133 0
-515 -142 -129 -132 0
-515 -142 -129 -133 0
-515 -143 -129 -133 0
-515 -141 -158 -161 0
-515 -141 -158 -162 0
-515 -141 -158 -163 0
-515 -142 -158 -162 0
-515 -142 -158 -163 0
-515 -143 -158 -163 0
-515 -141 -159 -161 0
-515 -141 -159 -162 0
-515 -141 -159 -163 0
-515 -142 -159 -162 0
-515 -142 -159 -163 0
-515 -143 -159 -163 0
-515 191 0
-515 -141 193 0
-515 -142 194 0
-515 -143 195 0
-515 -186 0
-516 155 0
-516 -163 0
-516 -146 -160 -152 0
-516 -146 -161 -153 0
-516 -146 -162 -154 0
-516 -158 0
-516 -159 0
-516 -160 -124 -131 0
-516 -160 -124 -132 0
-516 -160 -124 -133 0
-516 -161 -124 -132 0
-516 -161 -124 -133 0
-516 -162 -124 -133 0
-516 -160 -125 -131 0
-516 -160 -125 -132 0
-516 -160 -125 -133 0
-516 -161 -125 -132 0
-516 -161 -125 -133 0
-516 -162 -125 -133 0
-516 -160 -135 -142 0
-516 -160 -135 -143 0
-516 -160 -135 -144 0
-516 -161 -135 -143 0
-516 -161 -135 -144 0
-516 -162 -135 -144 0
-516 -160 -136 -142 0
-516 -160 -136 -143 0
-516 -160 -136 -144 0
-516 -161 -136 -143 0
-516 -161 -136 -144 0
-516 -162 -136 -144 0
-516 187 0
-516 -160 193 0
-516 -161 194 0
-516 -162 195 0
-516 -205 0
-517 155 0
-517 -163 0
-517 -147 -160 -152 0
-517 -147 -161 -153 0
-517 -147 -162 -154 0
-517 -159 0
-517 -160 -125 -131 0
-517 -160 -125 -132 0
-517 -160 -125 -133 0
-517 -161 -125 -132 0
-517 -161 -125 -133 0
-517 -162 -125 -133 0
-517 -160 -126 -131 0
-517 -160 -126 -132 0
-517 -160 -126 -133 0
-517 -161 -126 -132 0
-517 -161 -126 -133 0
-517 -162 -126 -133 0
-517 -160 -136 -142 0
-517 -160 -136 -143 0
-517 -160 -136 -144 0
-517 -161 -136 -143 0
-517 -161 -136 -144 0
-517 -162 -136 -144 0
-517 -160 -137 -142 0
-517 -160 -137 -143 0
-517 -160 -137 -144 0
-517 -161 -137 -143 0
-517 -161 -137 -144 0
-517 -162 -137 -144 0
-517 188 0
-517 -160 193 0
-517 -161 194 0
-517 -162 195 0
-517 -205 0
-518 155 0
-518 -163 0
-518 -148 -160 -152 0
-518 -148 -161 -153 0
-518 -148 -162 -154 0
-518 -160 -126 -131 0
-518 -160 -126 -132 0
-518 -160 -126 -133 0
-518 -161 -126 -132 0
-518 -161 -126 -133 0
-518 -162 -126 -133 0
-518 -160 -127 -131 0
-518 -160 -127 -132 0
-518 -160 -127 -133 0
-518 -161 -127 -132 0
-518 -161 -127 -133 0
-518 -162 -127 -133 0
-518 -160 -137 -142 0
-518 -160 -137 -143 0
-518 -160 -137 -144 0
-518 -161 -137 -143 0
-518 -161 -137 -144 0
-518 -162 -137 -144 0
-518 -160 -138 -142 0
-518 -160 -138 -143 0
-518 -160 -138 -144 0
-518 -161 -138 -143 0
-518 -161 -138 -144 0
-518 -162 -138 -144 0
-518 189 0
-518 -160 193 0
-518 -161 194 0
-518 -162 195 0
-518 -205 0
-519 155 0
-519 -163 0
-519 -149 -160 -152 0
-519 -149 -161 -153 0
-519 -149 -162 -154 0
-519 -156 0
-519 -160 -127 -131 0
-519 -160 -127 -132 0
-519 -160 -127 -133 0
-519 -161 -127 -132 0
-519 -161 -127 -133 0
-519 -162 -127 -133 0
-519 -160 -128 -131 0
-519 -160 -128 -132 0
-519 -160 -128 -133 0
-519 -161 -128 -132 0
-519 -161 -128 -133 0
-519 -162 -128 -133 0
-519 -160 -138 -142 0
-519 -160 -138 -143 0
-519 -160 -138 -144 0
-519 -161 -138 -143 0
-519 -161 -138 -144 0
-519 -162 -138 -144 0
-519 -160 -139 -142 0
-519 -160 -139 -143 0
-519 -160 -139 -144 0
-519 -161 -139 -143 0
-519 -161 -139 -144 0
-519 -162 -139 -144 0
-519 190 0
-519 -160 193 0
-519 -161 194 0
-519 -162 195 0
-519 -205 0
-520 155 0
-520 -163 0
-520 -150 -160 -152 0
-520 -150 -161 -153 0
-520 -150 -162 -154 0
-520 -156 0
-520 -157 0
-520 -160 -128 -131 0
-520 -160 -128 -132 0
-520 -160 -128 -133 0
-520 -161 -128 -132 0
-520 -161 -128 -133 0
-520 -162 -128 -133 0
-520 -160 -129 -131 0
-520 -160 -129 -132 0
-520 -160 -129 -133 0
-520 -161 -129 -132 0
-520 -161 -129 -133 0
-520 -162 -129 -133 0
-520 -160 -139 -142 0
-520 -160 -139 -143 0
-520 -160 -139 -144 0
-520 -161 -139 -143 0
-520 -161 -139 -144 0
-520 -162 -139 -144 0
-520 -160 -140 -142 0
-520 -160 -140 -143 0
-520 -160 -140 -144 0
-520 -161 -140 -143 0
-520 -161 -140 -144 0
-520 -162 -140 -144 0
-520 191 0
-520 -160 193 0
-520 -161 194 0
-520 -162 195 0
-520 -205 0
-521 155 0
-521 -146 -151 0
-521 -124 -130 0
-521 -124 -131 0
-521 -124 -132 0
-521 -124 -133 0
-521 -125 -130 0
-521 -125 -131 0
-521 -125 -132 0
-521 -125 -133 0
-521 -135 -141 0
-521 -135 -142 0
-521 -135 -143 0
-521 -135 -144 0
-521 -136 -141 0
-521 -136 -142 0
-521 -136 -143 0
-521 -136 -144 0
-521 -156 -160 0
-521 -156 -161 0
-521 -156 -162 0
-521 -156 -163 0
-521 -157 -160 0
-521 -157 -161 0
-521 -157 -162 0
-521 -157 -163 0
-521 187 0
-521 192 0
-522 155 0
-522 -147 -151 0
-522 -125 -130 0
-522 -125 -131 0
-522 -125 -132 0
-522 -125 -133 0
-522 -126 -130 0
-522 -126 -131 0
-522 -126 -132 0
-522 -126 -133 0
-522 -136 -141 0
-522 -136 -142 0
-522 -136 -143 0
-522 -136 -144 0
-522 -137 -141 0
-522 -137 -142 0
-522 -137 -143 0
-522 -137 -144 0
-522 -156 -160 0
-522 -156 -161 0
-522 -156 -162 0
-522 -156 -163 0
-522 -157 -160 0
-522 -157 -161 0
-522 -157 -162 0
-522 -157 -163 0
-522 -158 -160 0
-522 -158 -161 0
-522 -158 -162 0
-522 -158 -163 0
-522 188 0
-522 192 0
-523 155 0
-523 -148 -151 0
-523 -126 -130 0
-523 -126 -131 0
-523 -126 -132 0
-523 -126 -133 0
-523 -127 -130 0
-523 -127 -131 0
-523 -127 -132 0
-523 -127 -133 0
-523 -137 -141 0
-523 -137 -142 0
-523 -137 -143 0
-523 -137 -144 0
-523 -138 -141 0
-523 -138 -142 0
-523 -138 -143 0
-523 -138 -144 0
-523 -156 -160 0
-523 -156 -161 0
-523 -156 -162 0
-523 -156 -163 0
-523 -157 -160 0
-523 -157 -161 0
-523 -157 -162 0
-523 -157 -163 0
-523 -158 -160 0
-523 -158 -161 0
-523 -158 -162 0
-523 -158 -163 0
-523 -159 -160 0
-523 -159 -161 0
-523 -159 -162 0
-523 -159 -163 0
-523 189 0
-523 192 0
-524 155 0
-524 -149 -151 0
-524 -127 -130 0
-524 -127 -131 0
-524 -127 -132 0
-524 -127 -133 0
-524 -128 -130 0
-524 -128 -131 0
-524 -128 -132 0
-524 -128 -133 0
-524 -138 -141 0
-524 -138 -142 0
-524 -138 -143 0
-524 -138 -144 0
-524 -139 -141 0
-524 -139 -142 0
-524 -139 -143 0
-524 -139 -144 0
-524 -157 -160 0
-524 -157 -161 0
-524 -157 -162 0
-524 -157 -163 0
-524 -158 -160 0
-524 -158 -161 0
-524 -158 -162 0
-524 -158 -163 0
-524 -159 -160 0
-524 -159 -161 0
-524 -159 -162 0
-524 -159 -163 0
-524 190 0
-524 192 0
-525 155 0
-525 -150 -151 0
-525 -128 -130 0
-525 -128 -131 0
-525 -128 -132 0
-525 -128 -133 0
-525 -129 -130 0
-525 -129 -131 0
-525 -129 -132 0
-525 -129 -133 0
-525 -139 -141 0
-525 -139 -142 0
-525 -139 -143 0
-525 -139 -144 0
-525 -140 -141 0
-525 -140 -142 0
-525 -140 -143 0
-525 -140 -144 0
-525 -158 -160 0
-525 -158 -161 0
-525 -158 -162 0
-525 -158 -163 0
-525 -159 -160 0
-525 -159 -161 0
-525 -159 -162 0
-525 -159 -163 0
-525 191 0
-525 192 0
-526 164 0
-526 -133 0
-526 -156 -130 -161 0
-526 -156 -131 -162 0
-526 -156 -132 -163 0
-526 -127 0
-526 -128 0
-526 -129 0
-526 -130 -135 -142 0
-526 -130 -135 -143 0
-526 -130 -135 -144 0
-526 -131 -135 -143 0
-526 -131 -135 -144 0
-526 -132 -135 -144 0
-526 -130 -136 -142 0
-526 -130 -136 -143 0
-526 -130 -136 -144 0
-526 -131 -136 -143 0
-526 -131 -136 -144 0
-526 -132 -136 -144 0
-526 -130 -137 -142 0
-526 -130 -137 -143 0
-526 -130 -137 -144 0
-526 -131 -137 -143 0
-526 -131 -137 -144 0
-526 -132 -137 -144 0
-526 -130 -146 -152 0
-526 -130 -146 -153 0
-526 -130 -146 -154 0
-526 -131 -146 -153 0
-526 -131 -146 -154 0
-526 -132 -146 -154 0
-526 -130 -147 -152 0
-526 -130 -147 -153 0
-526 -130 -147 -154 0
-526 -131 -147 -153 0
-526 -131 -147 -154 0
-526 -132 -147 -154 0
-526 -130 -148 -152 0
-526 -130 -148 -153 0
-526 -130 -148 -154 0
-526 -131 -148 -153 0
-526 -131 -148 -154 0
-526 -132 -148 -154 0
-526 197 0
-526 -130 202 0
-526 -131 203 0
-526 -132 204 0
-526 -175 0
-527 164 0
-527 -133 0
-527 -157 -130 -161 0
-527 -157 -131 -162 0
-527 -157 -132 -163 0
-527 -124 0
-527 -128 0
-527 -129 0
-527 -130 -136 -142 0
-527 -130 -136 -143 0
-527 -130 -136 -144 0
-527 -131 -136 -143 0
-527 -131 -136 -144 0
-527 -132 -136 -144 0
-527 -130 -137 -142 0
-527 -130 -137 -143 0
-527 -130 -137 -144 0
-527 -131 -137 -143 0
-527 -131 -137 -144 0
-527 -132 -137 -144 0
-527 -130 -138 -142 0
-527 -130 -138 -143 0
-527 -130 -138 -144 0
-527 -131 -138 -143 0
-527 -131 -138 -144 0
-527 -132 -138 -144 0
-527 -130 -146 -152 0
-527 -130 -146 -153 0
-527 -130 -146 -154 0
-527 -131 -146 -153 0
-527 -131 -146 -154 0
-527 -132 -146 -154 0
-527 -130 -147 -152 0
-527 -130 -147 -153 0
-527 -130 -147 -154 0
-527 -131 -147 -153 0
-527 -131 -147 -154 0
-527 -132 -147 -154 0
-527 -130 -148 -152 0
-527 -130 -148 -153 0
-527 -130 -148 -154 0
-527 -131 -148 -153 0
-527 -131 -148 -154 0
-527 -132 -148 -154 0
-527 -130 -149 -152 0
-527 -130 -149 -153 0
-527 -130 -149 -154 0
-527 -131 -149 -153 0
-527 -131 -149 -154 0
-527 -132 -149 -154 0
-527 198 0
-527 -130 202 0
-527 -131 203 0
-527 -132 204 0
-527 -175 0
-528 164 0
-528 -133 0
-528 -158 -130 -161 0
-528 -158 -131 -162 0
-528 -158 -132 -163 0
-528 -124 0
-528 -125 0
-528 -129 0
-528 -130 -137 -142 0
-528 -130 -137 -143 0
-528 -130 -137 -144 0
-528 -131 -137 -143 0
-528 -131 -137 -144 0
-528 -132 -137 -144 0
-528 -130 -138 -142 0
-528 -130 -138 -143 0
-528 -130 -138 -144 0
-528 -131 -138 -143 0
-528 -131 -138 -144 0
-528 -132 -138 -144 0
-528 -130 -139 -142 0
-528 -130 -139 -143 0
-528 -130 -139 -144 0
-528 -131 -139 -143 0
-528 -131 -139 -144 0
-528 -132 -139 -144 0
-528 -130 -147 -152 0
-528 -130 -147 -153 0
-528 -130 -147 -154 0
-528 -131 -147 -153 0
-528 -131 -147 -154 0
-528 -132 -147 -154 0
-528 -130 -148 -152 0
-528 -130 -148 -153 0
-528 -130 -148 -154 0
-528 -131 -148 -153 0
-528 -131 -148 -154 0
-528 -132 -148 -154 0
-528 -130 -149 -152 0
-528 -130 -149 -153 0
-528 -130 -149 -154 0
-528 -131 -149 -153 0
-528 -131 -149 -154 0
-528 -132 -149 -154 0
-528 -130 -150 -152 0
-528 -130 -150 -153 0
-528 -130 -150 -154 0
-528 -131 -150 -153 0
-528 -131 -150 -154 0
-528 -132 -150 -154 0
-528 199 0
-528 -130 202 0
-528 -131 203 0
-528 -132 204 0
-528 -175 0
-529 164 0
-529 -133 0
-529 -159 -130 -161 0
-529 -159 -131 -162 0
-529 -159 -132 -163 0
-529 -124 0
-529 -125 0
-529 -126 0
-529 -130 -138 -142 0
-529 -130 -138 -143 0
-529 -130 -138 -144 0
-529 -131 -138 -143 0
-529 -131 -138 -144 0
-529 -132 -138 -144 0
-529 -130 -139 -142 0
-529 -130 -139 -143 0
-529 -130 -139 -144 0
-529 -131 -139 -143 0
-529 -131 -139 -144 0
-529 -132 -139 -144 0
-529 -130 -140 -142 0
-529 -130 -140 -143 0
-529 -130 -140 -144 0
-529 -131 -140 -143 0
-529 -131 -140 -144 0
-529 -132 -140 -144 0
-529 -130 -148 -152 0
-529 -130 -148 -153 0
-529 -130 -148 -154 0
-529 -131 -148 -153 0
-529 -131 -148 -154 0
-529 -132 -148 -154 0
-529 -130 -149 -152 0
-529 -130 -149 -153 0
-529 -130 -149 -154 0
-529 -131 -149 -153 0
-529 -131 -149 -154 0
-529 -132 -149 -154 0
-529 -130 -150 -152 0
-529 -130 -150 -153 0
-529 -130 -150 -154 0
-529 -131 -150 -153 0
-529 -131 -150 -154 0
-529 -132 -150 -154 0
-529 200 0
-529 -130 202 0
-529 -131 203 0
-529 -132 204 0
-529 -175 0
-530 164 0
-530 -144 0
-530 -156 -141 -161 0
-530 -156 -142 -162 0
-530 -156 -143 -163 0
-530 -138 0
-530 -139 0
-530 -140 0
-530 -141 -124 -131 0
-530 -141 -124 -132 0
-530 -141 -124 -133 0
-530 -142 -124 -132 0
-530 -142 -124 -133 0
-530 -143 -124 -133 0
-530 -141 -125 -131 0
-530 -141 -125 -132 0
-530 -141 -125 -133 0
-530 -142 -125 -132 0
-530 -142 -125 -133 0
-530 -143 -125 -133 0
-530 -141 -126 -131 0
-530 -141 -126 -132 0
-530 -141 -126 -133 0
-530 -142 -126 -132 0
-530 -142 -126 -133 0
-530 -143 -126 -133 0
-530 -141 -146 -152 0
-530 -141 -146 -153 0
-530 -141 -146 -154 0
-530 -142 -146 -153 0
-530 -142 -146 -154 0
-530 -143 -146 -154 0
-530 -141 -147 -152 0
-530 -141 -147 -153 0
-530 -141 -147 -154 0
-530 -142 -147 -153 0
-530 -142 -147 -154 0
-530 -143 -147 -154 0
-530 -141 -148 -152 0
-530 -141 -148 -153 0
-530 -141 -148 -154 0
-530 -142 -148 -153 0
-530 -142 -148 -154 0
-530 -143 -148 -154 0
-530 197 0
-530 -141 202 0
-530 -142 203 0
-530 -143 204 0
-530 -186 0
-531 164 0
-531 -144 0
-531 -157 -141 -161 0
-531 -157 -142 -162 0
-531 -157 -143 -163 0
-531 -135 0
-531 -139 0
-531 -140 0
-531 -141 -125 -131 0
-531 -141 -125 -132 0
-531 -141 -125 -133 0
-531 -142 -125 -132 0
-531 -142 -125 -133 0
-531 -143 -125 -133 0
-531 -141 -126 -131 0
-531 -141 -126 -132 0
-531 -141 -126 -133 0
-531 -142 -126 -132 0
-531 -142 -126 -133 0
-531 -143 -126 -133 0
-531 -141 -127 -131 0
-531 -141 -127 -132 0
-531 -141 -127 -133 0
-531 -142 -127 -132 0
-531 -142 -127 -133 0
-531 -143 -127 -133 0
-531 -141 -146 -152 0
-531 -141 -146 -153 0
-531 -141 -146 -154 0
-531 -142 -146 -153 0
-531 -142 -146 -154 0
-531 -143 -146 -154 0
-531 -141 -147 -152 0
-531 -141 -147 -153 0
-531 -141 -147 -154 0
-531 -142 -147 -153 0
-531 -142 -147 -154 0
-531 -143 -147 -154 0
-531 -141 -148 -152 0
-531 -141 -148 -153 0
-531 -141 -148 -154 0
-531 -142 -148 -153 0
-531 -142 -148 -154 0
-531 -143 -148 -154 0
-531 -141 -149 -152 0
-531 -141 -149 -153 0
-531 -141 -149 -154 0
-531 -142 -149 -153 0
-531 -142 -149 -154 0
-531 -143 -149 -154 0
-531 198 0
-531 -141 202 0
-531 -142 203 0
-531 -143 204 0
-531 -186 0
-532 164 0
-532 -144 0
-532 -158 -141 -161 0
-532 -158 -142 -162 0
-532 -158 -143 -163 0
-532 -135 0
-532 -136 0
-532 -140 0
-532 -141 -126 -131 0
-532 -141 -126 -132 0
-532 -141 -126 -133 0
-532 -142 -126 -132 0
-532 -142 -126 -133 0
-532 -143 -126 -133 0
-532 -141 -127 -131 0
-532 -141 -127 -132 0
-532 -141 -127 -133 0
-532 -142 -127 -132 0
-532 -142 -127 -133 0
-532 -143 -127 -133 0
-532 -141 -128 -131 0
-532 -141 -128 -132 0
-532 -141 -128 -133 0
-532 -142 -128 -132 0
-532 -142 -128 -133 0
-532 -143 -128 -133 0
-532 -141 -147 -152 0
-532 -141 -147 -153 0
-532 -141 -147 -154 0
-532 -142 -147 -153 0
-532 -142 -147 -154 0
-532 -143 -147 -154 0
-532 -141 -148 -152 0
-532 -141 -148 -153 0
-532 -141 -148 -154 0
-532 -142 -148 -153 0
-532 -142 -148 -154 0
-532 -143 -148 -154 0
-532 -141 -149 -152 0
-532 -141 -149 -153 0
-532 -141 -149 -154 0
-532 -142 -149 -153 0
-532 -142 -149 -154 0
-532 -143 -149 -154 0
-532 -141 -150 -152 0
-532 -141 -150 -153 0
-532 -141 -150 -154 0
-532 -142 -150 -153 0
-532 -142 -150 -154 0
-532 -143 -150 -154 0
-532 199 0
-532 -141 202 0
-532 -142 203 0
-532 -143 204 0
-532 -186 0
-533 164 0
-533 -144 0
-533 -159 -141 -161 0
-533 -159 -142 -162 0
-533 -159 -143 -163 0
-533 -135 0
-533 -136 0
-533 -137 0
-533 -141 -127 -131 0
-533 -141 -127 -132 0
-533 -141 -127 -133 0
-533 -142 -127 -132 0
-533 -142 -127 -133 0
-533 -143 -127 -133 0
-533 -141 -128 -131 0
-533 -141 -128 -132 0
-533 -141 -128 -133 0
-533 -142 -128 -132 0
-533 -142 -128 -133 0
-533 -143 -128 -133 0
-533 -141 -129 -131 0
-533 -141 -129 -132 0
-533 -141 -129 -133 0
-533 -142 -129 -132 0
-533 -142 -129 -133 0
-533 -143 -129 -133 0
-533 -141 -148 -152 0
-533 -141 -148 -153 0
-533 -141 -148 -154 0
-533 -142 -148 -153 0
-533 -142 -148 -154 0
-533 -143 -148 -154 0
-533 -141 -149 -152 0
-533 -141 -149 -153 0
-533 -141 -149 -154 0
-533 -142 -149 -153 0
-533 -142 -149 -154 0
-533 -143 -149 -154 0
-533 -141 -150 -152 0
-533 -141 -150 -153 0
-533 -141 -150 -154 0
-533 -142 -150 -153 0
-533 -142 -150 -154 0
-533 -143 -150 -154 0
-533 200 0
-533 -141 202 0
-533 -142 203 0
-533 -143 204 0
-533 -186 0
-534 164 0
-534 -154 0
-534 -156 -151 -161 0
-534 -156 -152 -162 0
-534 -156 -153 -163 0
-534 -149 0
-534 -150 0
-534 -151 -124 -131 0
-534 -151 -124 -132 0
-534 -151 -124 -133 0
-534 -152 -124 -132 0
-534 -152 -124 -133 0
-534 -153 -124 -133 0
-534 -151 -125 -131 0
-534 -151 -125 -132 0
-534 -151 -125 -133 0
-534 -152 -125 -132 0
-534 -152 -125 -133 0
-534 -153 -125 -133 0
-534 -151 -126 -131 0
-534 -151 -126 -132 0
-534 -151 -126 -133 0
-534 -152 -126 -132 0
-534 -152 -126 -133 0
-534 -153 -126 -133 0
-534 -151 -135 -142 0
-534 -151 -135 -143 0
-534 -151 -135 -144 0
-534 -152 -135 -143 0
-534 -152 -135 -144 0
-534 -153 -135 -144 0
-534 -151 -136 -142 0
-534 -151 -136 -143 0
-534 -151 -136 -144 0
-534 -152 -136 -143 0
-534 -152 -136 -144 0
-534 -153 -136 -144 0
-534 -151 -137 -142 0
-534 -151 -137 -143 0
-534 -151 -137 -144 0
-534 -152 -137 -143 0
-534 -152 -137 -144 0
-534 -153 -137 -144 0
-534 197 0
-534 -151 202 0
-534 -152 203 0
-534 -153 204 0
-534 -196 0
-535 164 0
-535 -154 0
-535 -157 -151 -161 0
-535 -157 -152 -162 0
-535 -157 -153 -163 0
-535 -150 0
-535 -151 -125 -131 0
-535 -151 -125 -132 0
-535 -151 -125 -133 0
-535 -152 -125 -132 0
-535 -152 -125 -133 0
-535 -153 -125 -133 0
-535 -151 -126 -131 0
-535 -151 -126 -132 0
-535 -151 -126 -133 0
-535 -152 -126 -132 0
-535 -152 -126 -133 0
-535 -153 -126 -133 0
-535 -151 -127 -131 0
-535 -151 -127 -132 0
-535 -151 -127 -133 0
-535 -152 -127 -132 0
-535 -152 -127 -133 0
-535 -153 -127 -133 0
-535 -151 -136 -142 0
-535 -151 -136 -143 0
-535 -151 -136 -144 0
-535 -152 -136 -143 0
-535 -152 -136 -144 0
-535 -153 -136 -144 0
-535 -151 -137 -142 0
-535 -151 -137 -143 0
-535 -151 -137 -144 0
-535 -152 -137 -143 0
-535 -152 -137 -144 0
-535 -153 -137 -144 0
-535 -151 -138 -142 0
-535 -151 -138 -143 0
-535 -151 -138 -144 0
-535 -152 -138 -143 0
-535 -152 -138 -144 0
-535 -153 -138 -144 0
-535 198 0
-535 -151 202 0
-535 -152 203 0
-535 -153 204 0
-535 -196 0
-536 164 0
-536 -154 0
-536 -158 -151 -161 0
-536 -158 -152 -162 0
-536 -158 -153 -163 0
-536 -146 0
-536 -151 -126 -131 0
-536 -151 -126 -132 0
-536 -151 -126 -133 0
-536 -152 -126 -132 0
-536 -152 -126 -133 0
-536 -153 -126 -133 0
-536 -151 -127 -131 0
-536 -151 -127 -132 0
-536 -151 -127 -133 0
-536 -152 -127 -132 0
-536 -152 -127 -133 0
-536 -153 -127 -133 0
-536 -151 -128 -131 0
-536 -151 -128 -132 0
-536 -151 -128 -133 0
-536 -152 -128 -132 0
-536 -152 -128 -133 0
-536 -153 -128 -133 0
-536 -151 -137 -142 0
-536 -151 -137 -143 0
-536 -151 -137 -144 0
-536 -152 -137 -143 0
-536 -152 -137 -144 0
-536 -153 -137 -144 0
-536 -151 -138 -142 0
-536 -151 -138 -143 0
-536 -151 -138 -144 0
-536 -152 -138 -143 0
-536 -152 -138 -144 0
-536 -153 -138 -144 0
-536 -151 -139 -142 0
-536 -151 -139 -143 0
-536 -151 -139 -144 0
-536 -152 -139 -143 0
-536 -152 -139 -144 0
-536 -153 -139 -144 0
-536 199 0
-536 -151 202 0
-536 -152 203 0
-536 -153 204 0
-536 -196 0
-537 164 0
-537 -154 0
-537 -159 -151 -161 0
-537 -159 -152 -162 0
-537 -159 -153 -163 0
-537 -146 0
-537 -147 0
-537 -151 -127 -131 0
-537 -151 -127 -132 0
-537 -151 -127 -133 0
-537 -152 -127 -132 0
-537 -152 -127 -133 0
-537 -153 -127 -133 0
-537 -151 -128 -131 0
-537 -151 -128 -132 0
-537 -151 -128 -133 0
-537 -152 -128 -132 0
-537 -152 -128 -133 0
-537 -153 -128 -133 0
-537 -151 -129 -131 0
-537 -151 -129 -132 0
-537 -151 -129 -133 0
-537 -152 -129 -132 0
-537 -152 -129 -133 0
-537 -153 -129 -133 0
-537 -151 -138 -142 0
-537 -151 -138 -143 0
-537 -151 -138 -144 0
-537 -152 -138 -143 0
-537 -152 -138 -144 0
-537 -153 -138 -144 0
-537 -151 -139 -142 0
-537 -151 -139 -143 0
-537 -151 -139 -144 0
-537 -152 -139 -143 0
-537 -152 -139 -144 0
-537 -153 -139 -144 0
-537 -151 -140 -142 0
-537 -151 -140 -143 0
-537 -151 -140 -144 0
-537 -152 -140 -143 0
-537 -152 -140 -144 0
-537 -153 -140 -144 0
-537 200 0
-537 -151 202 0
-537 -152 203 0
-537 -153 204 0
-537 -196 0
-538 164 0
-538 -156 -160 0
-538 -124 -130 0
-538 -124 -131 0
-538 -124 -132 0
-538 -124 -133 0
-538 -125 -130 0
-538 -125 -131 0
-538 -125 -132 0
-538 -125 -133 0
-538 -126 -130 0
-538 -126 -131 0
-538 -126 -132 0
-538 -126 -133 0
-538 -135 -141 0
-538 -135 -142 0
-538 -135 -143 0
-538 -135 -144 0
-538 -136 -141 0
-538 -136 -142 0
-538 -136 -143 0
-538 -136 -144 0
-538 -137 -141 0
-538 -137 -142 0
-538 -137 -143 0
-538 -137 -144 0
-538 -146 -151 0
-538 -146 -152 0
-538 -146 -153 0
-538 -146 -154 0
-538 -147 -151 0
-538 -147 -152 0
-538 -147 -153 0
-538 -147 -154 0
-538 -148 -151 0
-538 -148 -152 0
-538 -148 -153 0
-538 -148 -154 0
-538 197 0
-538 201 0
-539 164 0
-539 -157 -160 0
-539 -125 -130 0
-539 -125 -131 0
-539 -125 -132 0
-539 -125 -133 0
-539 -126 -130 0
-539 -126 -131 0
-539 -126 -132 0
-539 -126 -133 0
-539 -127 -130 0
-539 -127 -131 0
-539 -127 -132 0
-539 -127 -133 0
-539 -136 -141 0
-539 -136 -142 0
-539 -136 -143 0
-539 -136 -144 0
-539 -137 -141 0
-539 -137 -142 0
-539 -137 -143 0
-539 -137 -144 0
-539 -138 -141 0
-539 -138 -142 0
-539 -138 -143 0
-539 -138 -144 0
-539 -146 -151 0
-539 -146 -152 0
-539 -146 -153 0
-539 -146 -154 0
-539 -147 -151 0
-539 -147 -152 0
-539 -147 -153 0
-539 -147 -154 0
-539 -148 -151 0
-539 -148 -152 0
-539 -148 -153 0
-539 -148 -154 0
-539 -149 -151 0
-539 -149 -152 0
-539 -149 -153 0
-539 -149 -154 0
-539 198 0
-539 201 0
-540 164 0
-540 -158 -160 0
-540 -126 -130 0
-540 -126 -131 0
-540 -126 -132 0
-540 -126 -133 0
-540 -127 -130 0
-540 -127 -131 0
-540 -127 -132 0
-540 -127 -133 0
-540 -128 -130 0
-540 -128 -131 0
-540 -128 -132 0
-540 -128 -133 0
-540 -137 -141 0
-540 -137 -142 0
-540 -137 -143 0
-540 -137 -144 0
-540 -138 -141 0
-540 -138 -142 0
-540 -138 -143 0
-540 -138 -144 0
-540 -139 -141 0
-540 -139 -142 0
-540 -139 -143 0
-540 -139 -144 0
-540 -147 -151 0
-540 -147 -152 0
-540 -147 -153 0
-540 -147 -154 0
-540 -148 -151 0
-540 -148 -152 0
-540 -148 -153 0
-540 -148 -154 0
-540 -149 -151 0
-540 -149 -152 0
-540 -149 -153 0
-540 -149 -154 0
-540 -150 -151 0
-540 -150 -152 0
-540 -150 -153 0
-540 -150 -154 0
-540 199 0
-540 201 0
-541 164 0
-541 -159 -160 0
-541 -127 -130 0
-541 -127 -131 0
-541 -127 -132 0
-541 -127 -133 0
-541 -128 -130 0
-541 -128 -131 0
-541 -128 -132 0
-541 -128 -133 0
-541 -129 -130 0
-541 -129 -131 0
-541 -129 -132 0
-541 -129 -133 0
-541 -138 -141 0
-541 -138 -142 0
-541 -138 -143 0
-541 -138 -144 0
-541 -139 -141 0
-541 -139 -142 0
-541 -139 -143 0
-541 -139 -144 0
-541 -140 -141 0
-541 -140 -142 0
-541 -140 -143 0
-541 -140 -144 0
-541 -148 -151 0
-541 -148 -152 0
-541 -148 -153 0
-541 -148 -154 0
-541 -149 -151 0
-541 -149 -152 0
-541 -149 -153 0
-541 -149 -154 0
-541 -150 -151 0
-541 -150 -152 0
-541 -150 -153 0
-541 -150 -154 0
-541 200 0
-541 201 0
-1 42 206 207 208 209 210 211 212 213 214 215 216 217 218 219 220 221 222 223 224 225 226 227 228 229 0
-2 43 206 207 208 209 210 211 212 213 214 215 216 217 218 219 220 221 222 223 224 225 226 227 228 229 0
-3 44 206 207 208 209 210 211 212 213 214 215 216 217 218 219 220 221 222 223 224 225 226 227 228 229 0
-4 45 206 207 208 209 210 211 212 213 214 215 216 217 218 219 220 221 222 223 224 225 226 227 228 229 0
-5 46 206 207 208 209 210 211 212 213 214 215 216 217 218 219 220 221 222 223 224 225 226 227 228 229 0
-6 47 206 207 208 209 210 211 212 213 214 215 216 217 218 219 220 221 222 223 224 225 226 227 228 229 0
-7 48 206 207 208 209 210 211 212 213 214 215 216 217 218 219 220 221 222 223 224 225 226 227 228 229 0
-8 49 206 207 208 209 210 211 212 213 214 215 216 217 218 219 220 221 222 223 224 225 226 227 228 229 0
-9 50 206 207 208 209 210 211 212 213 214 215 216 217 218 219 220 221 222 223 224 225 226 227 228 229 0
-10 51 206 207 208 209 210 211 212 213 214 215 216 217 218 219 220 221 222 223 224 225 226 227 228 229 0
-12 53 230 231 232 233 234 235 236 237 238 239 240 241 242 243 244 245 246 247 248 249 250 251 252 253 0
-13 54 230 231 232 233 234 235 236 237 238 239 240 241 242 243 244 245 246 247 248 249 250 251 252 253 0
-14 55 230 231 232 233 234 235 236 237 238 239 240 241 242 243 244 245 246 247 248 249 250 251 252 253 0
-15 56 230 231 232 233 234 235 236 237 238 239 240 241 242 243 244 245 246 247 248 249 250 251 252 253 0
-16 57 230 231 232 233 234 235 236 237 238 239 240 241 242 243 244 245 246 247 248 249 250 251 252 253 0
-17 58 230 231 232 233 234 235 236 237 238 239 240 241 242 243 244 245 246 247 248 249 250 251 252 253 0
-18 59 230 231 232 233 234 235 236 237 238 239 240 241 242 243 244 245 246 247 248 249 250 251 252 253 0
-19 60 230 231 232 233 234 235 236 237 238 239 240 241 242 243 244 245 246 247 248 249 250 251 252 253 0
-20 61 230 231 232 233 234 235 236 237 238 239 240 241 242 243 244 245 246 247 248 249 250 251 252 253 0
-21 62 230 231 232 233 234 235 236 237 238 239 240 241 242 243 244 245 246 247 248 249 250 251 252 253 0
-23 64 254 255 256 257 258 259 260 261 262 263 264 265 266 267 268 269 270 271 272 273 0
-24 65 254 255 256 257 258 259 260 261 262 263 264 265 266 267 268 269 270 271 272 273 0
-25 66 254 255 256 257 258 259 260 261 262 263 264 265 266 267 268 269 270 271 272 273 0
-26 67 254 255 256 257 258 259 260 261 262 263 264 265 266 267 268 269 270 271 272 273 0
-27 68 254 255 256 257 258 259 260 261 262 263 264 265 266 267 268 269 270 271 272 273 0
-28 69 254 255 256 257 258 259 260 261 262 263 264 265 266 267 268 269 270 271 272 273 0
-29 70 254 255 256 257 258 259 260 261 262 263 264 265 266 267 268 269 270 271 272 273 0
-30 71 254 255 256 257 258 259 260 261 262 263 264 265 266 267 268 269 270 271 272 273 0
-31 72 254 255 256 257 258 259 260 261 262 263 264 265 266 267 268 269 270 271 272 273 0
-33 74 274 275 276 277 278 279 280 281 282 283 284 285 286 287 288 289 0
-34 75 274 275 276 277 278 279 280 281 282 283 284 285 286 287 288 289 0
-35 76 274 275 276 277 278 279 280 281 282 283 284 285 286 287 288 289 0
-36 77 274 275 276 277 278 279 280 281 282 283 284 285 286 287 288 289 0
-37 78 274 275 276 277 278 279 280 281 282 283 284 285 286 287 288 289 0
-38 79 274 275 276 277 278 279 280 281 282 283 284 285 286 287 288 289 0
-39 80 274 275 276 277 278 279 280 281 282 283 284 285 286 287 288 289 0
-40 81 274 275 276 277 278 279 280 281 282 283 284 285 286 287 288 289 0
-42 83 290 291 292 293 294 295 296 297 298 299 300 301 302 303 304 305 306 307 308 309 310 311 312 313 0
-43 84 290 291 292 293 294 295 296 297 298 299 300 301 302 303 304 305 306 307 308 309 310 311 312 313 0
-44 85 290 291 292 293 294 295 296 297 298 299 300 301 302 303 304 305 306 307 308 309 310 311 312 313 0
-45 86 290 291 292 293 294 295 296 297 298 299 300 301 302 303 304 305 306 307 308 309 310 311 312 313 0
-46 87 290 291 292 293 294 295 296 297 298 299 300 301 302 303 304 305 306 307 308 309 310 311 312 313 0
-47 88 290 291 292 293 294 295 296 297 298 299 300 301 302 303 304 305 306 307 308 309 310 311 312 313 0
-48 89 290 291 292 293 294 295 296 297 298 299 300 301 302 303 304 305 306 307 308 309 310 311 312 313 0
-49 90 290 291 292 293 294 295 296 297 298 299 300 301 302 303 304 305 306 307 308 309 310 311 312 313 0
-50 91 290 291 292 293 294 295 296 297 298 299 300 301 302 303 304 305 306 307 308 309 310 311 312 313 0
-51 92 290 291 292 293 294 295 296 297 298 299 300 301 302 303 304 305 306 307 308 309 310 311 312 313 0
-53 94 314 315 316 317 318 319 320 321 322 323 324 325 326 327 328 329 330 331 332 333 334 335 336 337 0
-54 95 314 315 316 317 318 319 320 321 322 323 324 325 326 327 328 329 330 331 332 333 334 335 336 337 0
-55 96 314 315 316 317 318 319 320 321 322 323 324 325 326 327 328 329 330 331 332 333 334 335 336 337 0
-56 97 314 315 316 317 318 319 320 321 322 323 324 325 326 327 328 329 330 331 332 333 334 335 336 337 0
-57 98 314 315 316 317 318 319 320 321 322 323 324 325 326 327 328 329 330 331 332 333 334 335 336 337 0
-58 99 314 315 316 317 318 319 320 321 322 323 324 325 326 327 328 329 330 331 332 333 334 335 336 337 0
-59 100 314 315 316 317 318 319 320 321 322 323 324 325 326 327 328 329 330 331 332 333 334 335 336 337 0
-60 101 314 315 316 317 318 319 320 321 322 323 324 325 326 327 328 329 330 331 332 333 334 335 336 337 0
-61 102 314 315 316 317 318 319 320 321 322 323 324 325 326 327 328 329 330 331 332 333 334 335 336 337 0
-62 103 314 315 316 317 318 319 320 321 322 323 324 325 326 327 328 329 330 331 332 333 334 335 336 337 0
-64 105 338 339 340 341 342 343 344 345 346 347 348 349 350 351 352 353 354 355 356 357 0
-65 106 338 339 340 341 342 343 344 345 346 347 348 349 350 351 352 353 354 355 356 357 0
-66 107 338 339 340 341 342 343 344 345 346 347 348 349 350 351 352 353 354 355 356 357 0
-67 108 338 339 340 341 342 343 344 345 346 347 348 349 350 351 352 353 354 355 356 357 0
-68 109 338 339 340 341 342 343 344 345 346 347 348 349 350 351 352 353 354 355 356 357 0
-69 110 338 339 340 341 342 343 344 345 346 347 348 349 350 351 352 353 354 355 356 357 0
-70 111 338 339 340 341 342 343 344 345 346 347 348 349 350 351 352 353 354 355 356 357 0
-71 112 338 339 340 341 342 343 344 345 346 347 348 349 350 351 352 353 354 355 356 357 0
-72 113 338 339 340 341 342 343 344 345 346 347 348 349 350 351 352 353 354 355 356 357 0
-74 115 358 359 360 361 362 363 364 365 366 367 368 369 370 371 372 373 0
-75 116 358 359 360 361 362 363 364 365 366 367 368 369 370 371 372 373 0
-76 117 358 359 360 361 362 363 364 365 366 367 368 369 370 371 372 373 0
-77 118 358 359 360 361 362 363 364 365 366 367 368 369 370 371 372 373 0
-78 119 358 359 360 361 362 363 364 365 366 367 368 369 370 371 372 373 0
-79 120 358 359 360 361 362 363 364 365 366 367 368 369 370 371 372 373 0
-80 121 358 359 360 361 362 363 364 365 366 367 368 369 370 371 372 373 0
-81 122 358 359 360 361 362 363 364 365 366 367 368 369 370 371 372 373 0
-83 124 374 375 376 377 378 379 380 381 382 383 384 385 386 387 388 389 390 391 392 393 394 395 396 397 0
-84 125 374 375 376 377 378 379 380 381 382 383 384 385 386 387 388 389 390 391 392 393 394 395 396 397 0
-85 126 374 375 376 377 378 379 380 381 382 383 384 385 386 387 388 389 390 391 392 393 394 395 396 397 0
-86 127 374 375 376 377 378 379 380 381 382 383 384 385 386 387 388 389 390 391 392 393 394 395 396 397 0
-87 128 374 375 376 377 378 379 380 381 382 383 384 385 386 387 388 389 390 391 392 393 394 395 396 397 0
-88 129 374 375 376 377 378 379 380 381 382 383 384 385 386 387 388 389 390 391 392 393 394 395 396 397 0
-89 130 374 375 376 377 378 379 380 381 382 383 384 385 386 387 388 389 390 391 392 393 394 395 396 397 0
-90 131 374 375 376 377 378 379 380 381 382 383 384 385 386 387 388 389 390 391 392 393 394 395 396 397 0
-91 132 374 375 376 377 378 379 380 381 382 383 384 385 386 387 388 389 390 391 392 393 394 395 396 397 0
-92 133 374 375 376 377 378 379 380 381 382 383 384 385 386 387 388 389 390 391 392 393 394 395 396 397 0
-94 135 398 399 400 401 402 403 404 405 406 407 408 409 410 411 412 413 414 415 416 417 418 419 420 421 0
-95 136 398 399 400 401 402 403 404 405 406 407 408 409 410 411 412 413 414 415 416 417 418 419 420 421 0
-96 137 398 399 400 401 402 403 404 405 406 407 408 409 410 411 412 413 414 415 416 417 418 419 420 421 0
-97 138 398 399 400 401 402 403 404 405 406 407 408 409 410 411 412 413 414 415 416 417 418 419 420 421 0
-98 139 398 399 400 401 402 403 404 405 406 407 408 409 410 411 412 413 414 415 416 417 418 419 420 421 0
-99 140 398 399 400 401 402 403 404 405 406 407 408 409 410 411 412 413 414 415 416 417 418 419 420 421 0
-100 141 398 399 400 401 402 403 404 405 406 407 408 409 410 411 412 413 414 415 416 417 418 419 420 421 0
-101 142 398 399 400 401 402 403 404 405 406 407 408 409 410 411 412 413 414 415 416 417 418 419 420 421 0
-102 143 398 399 400 401 402 403 404 405 406 407 408 409 410 411 412 413 414 415 416 417 418 419 420 421 0
-103 144 398 399 400 401 402 403 404 405 406 407 408 409 410 411 412 413 414 415 416 417 418 419 420 421 0
-105 146 422 423 424 425 426 427 428 429 430 431 432 433 434 435 436 437 438 439 440 441 0
-106 147 422 423 424 425 426 427 428 429 430 431 432 433 434 435 436 437 438 439 440 441 0
-107 148 422 423 424 425 426 427 428 429 430 431 432 433 434 435 436 437 438 439 440 441 0
-108 149 422 423 424 425 426 427 428 429 430 431 432 433 434 435 436 437 438 439 440 441 0
-109 150 422 423 424 425 426 427 428 429 430 431 432 433 434 435 436 437 438 439 440 441 0
-110 151 422 423 424 425 426 427 428 429 430 431 432 433 434 435 436 437 438 439 440 441 0
-111 152 422 423 424 425 426 427 428 429 430 431 432 433 434 435 436 437 438 439 440 441 0
-112 153 422 423 424 425 426 427 428 429 430 431 432 433 434 435 436 437 438 439 440 441 0
-113 154 422 423 424 425 426 427 428 429 430 431 432 433 434 435 436 437 438 439 440 441 0
-115 156 442 443 444 445 446 447 448 449 450 451 452 453 454 455 456 457 0
-116 157 442 443 444 445 446 447 448 449 450 451 452 453 454 455 456 457 0
-117 158 442 443 444 445 446 447 448 449 450 451 452 453 454 455 456 457 0
-118 159 442 443 444 445 446 447 448 449 450 451 452 453 454 455 456 457 0
-119 160 442 443 444 445 446 447 448 449 450 451 452 453 454 455 456 457 0
-120 161 442 443 444 445 446 447 448 449 450 451 452 453 454 455 456 457 0
-121 162 442 443 444 445 446 447 448 449 450 451 452 453 454 455 456 457 0
-122 163 442 443 444 445 446 447 448 449 450 451 452 453 454 455 456 457 0
-124 165 458 459 460 461 462 463 464 465 466 467 468 469 470 471 472 473 474 475 476 477 478 479 480 481 0
-125 166 458 459 460 461 462 463 464 465 466 467 468 469 470 471 472 473 474 475 476 477 478 479 480 481 0
-126 167 458 459 460 461 462 463 464 465 466 467 468 469 470 471 472 473 474 475 476 477 478 479 480 481 0
-127 168 458 459 460 461 462 463 464 465 466 467 468 469 470 471 472 473 474 475 476 477 478 479 480 481 0
-128 169 458 459 460 461 462 463 464 465 466 467 468 469 470 471 472 473 474 475 476 477 478 479 480 481 0
-129 170 458 459 460 461 462 463 464 465 466 467 468 469 470 471 472 473 474 475 476 477 478 479 480 481 0
-130 171 458 459 460 461 462 463 464 465 466 467 468 469 470 471 472 473 474 475 476 477 478 479 480 481 0
-131 172 458 459 460 461 462 463 464 465 466 467 468 469 470 471 472 473 474 475 476 477 478 479 480 481 0
-132 173 458 459 460 461 462 463 464 465 466 467 468 469 470 471 472 473 474 475 476 477 478 479 480 481 0
-133 174 458 459 460 461 462 463 464 465 466 467 468 469 470 471 472 473 474 475 476 477 478 479 480 481 0
-135 176 482 483 484 485 486 487 488 489 490 491 492 493 494 495 496 497 498 499 500 501 502 503 504 505 0
-136 177 482 483 484 485 486 487 488 489 490 491 492 493 494 495 496 497 498 499 500 501 502 503 504 505 0
-137 178 482 483 484 485 486 487 488 489 490 491 492 493 494 495 496 497 498 499 500 501 502 503 504 505 0
-138 179 482 483 484 485 486 487 488 489 490 491 492 493 494 495 496 497 498 499 500 501 502 503 504 505 0
-139 180 482 483 484 485 486 487 488 489 490 491 492 493 494 495 496 497 498 499 500 501 502 503 504 505 0
-140 181 482 483 484 485 486 487 488 489 490 491 492 493 494 495 496 497 498 499 500 501 502 503 504 505 0
-141 182 482 483 484 485 486 487 488 489 490 491 492 493 494 495 496 497 498 499 500 501 502 503 504 505 0
-142 183 482 483 484 485 486 487 488 489 490 491 492 493 494 495 496 497 498 499 500 501 502 503 504 505 0
-143 184 482 483 484 485 486 487 488 489 490 491 492 493 494 495 496 497 498 499 500 501 502 503 504 505 0
-144 185 482 483 484 485 486 487 488 489 490 491 492 493 494 495 496 497 498 499 500 501 502 503 504 505 0
-146 187 506 507 508 509 510 511 512 513 514 515 516 517 518 519 520 521 522 523 524 525 0
-147 188 506 507 508 509 510 511 512 513 514 515 516 517 518 519 520 521 522 523 524 525 0
-148 189 506 507 508 509 510 511 512 513 514 515 516 517 518 519 520 521 522 523 524 525 0
-149 190 506 507 508 509 510 511 512 513 514 515 516 517 518 519 520 521 522 523 524 525 0
-150 191 506 507 508 509 510 511 512 513 514 515 516 517 518 519 520 521 522 523 524 525 0
-151 192 506 507 508 509 510 511 512 513 514 515 516 517 518 519 520 521 522 523 524 525 0
-152 193 506 507 508 509 510 511 512 513 514 515 516 517 518 519 520 521 522 523 524 525 0
-153 194 506 507 508 509 510 511 512 513 514 515 516 517 518 519 520 521 522 523 524 525 0
-154 195 506 507 508 509 510 511 512 513 514 515 516 517 518 519 520 521 522 523 524 525 0
-156 197 526 527 528 529 530 531 532 533 534 535 536 537 538 539 540 541 0
-157 198 526 527 528 529 530 531 532 533 534 535 536 537 538 539 540 541 0
-158 199 526 527 528 529 530 531 532 533 534 535 536 537 538 539 540 541 0
-159 200 526 527 528 529 530 531 532 533 534 535 536 537 538 539 540 541 0
-160 201 526 527 528 529 530 531 532 533 534 535 536 537 538 539 540 541 0
-161 202 526 527 528 529 530 531 532 533 534 535 536 537 538 539 540 541 0
-162 203 526 527 528 529 530 531 532 533 534 535 536 537 538 539 540 541 0
-163 204 526 527 528 529 530 531 532 533 534 535 536 537 538 539 540 541 0
206 207 208 209 210 211 212 213 214 215 216 217 218 219 220 221 222 223 224 225 226 227 228 229 230 231 232 233 234 235 236 237 238 239 240 241 242 243 244 245 246 247 248 249 250 251 252 253 254 255 256 257 258 259 260 261 262 263 264 265 266 267 268 269 270 271 272 273 274 275 276 277 278 279 280 281 282 283 284 285 286 287 288 289 0
-206 -207 0
-206 -208 0
-206 -209 0
-206 -210 0
-206 -211 0
-206 -212 0
-206 -213 0
-206 -214 0
-206 -215 0
-206 -216 0
-206 -217 0
-206 -218 0
-206 -219 0
-206 -220 0
-206 -221 0
-206 -222 0
-206 -223 0
-206 -224 0
-206 -225 0
-206 -226 0
-206 -227 0
-206 -228 0
-206 -229 0
-206 -230 0
-206 -231 0
-206 -232 0
-206 -233 0
-206 -234 0
-206 -235 0
-206 -236 0
-206 -237 0
-206 -238 0
-206 -239 0
-206 -240 0
-206 -241 0
-206 -242 0
-206 -243 0
-206 -244 0
-206 -245 0
-206 -246 0
-206 -247 0
-206 -248 0
-206 -249 0
-206 -250 0
-206 -251 0
-206 -252 0
-206 -253 0
-206 -254 0
-206 -255 0
-206 -256 0
-206 -257 0
-206 -258 0
-206 -259 0
-206 -260 0
-206 -261 0
-206 -262 0
-206 -263 0
-206 -264 0
-206 -265 0
-206 -266 0
-206 -267 0
-206 -268 0
-206 -269 0
-206 -270 0
-206 -271 0
-206 -272 0
-206 -273 0
-206 -274 0
-206 -275 0
-206 -276 0
-206 -277 0
-206 -278 0
-206 -279 0
-206 -280 0
-206 -281 0
-206 -282 0
-206 -283 0
-206 -284 0
-206 -285 0
-206 -286 0
-206 -287 0
-206 -288 0
-206 -289 0
-207 -208 0
-207 -209 0
-207 -210 0
-207 -211 0
-207 -212 0
-207 -213 0
-207 -214 0
-207 -215 0
-207 -216 0
-207 -217 0
-207 -218 0
-207 -219 0
-207 -220 0
-207 -221 0
-207 -222 0
-207 -223 0
-207 -224 0
-207 -225 0
-207 -226 0
-207 -227 0
-207 -228 0
-207 -229 0
-207 -230 0
-207 -231 0
-207 -232 0
-207 -233 0
-207 -234 0
-207 -235 0
-207 -236 0
-207 -237 0
-207 -238 0
-207 -239 0
-207 -240 0
-207 -241 0
-207 -242 0
-207 -243 0
-207 -244 0
-207 -245 0
-207 -246 0
-207 -247 0
-207 -248 0
-207 -249 0
-207 -250 0
-207 -251 0
-207 -252 0
-207 -253 0
-207 -254 0
-207 -255 0
-207 -256 0
-207 -257 0
-207 -258 0
-207 -259 0
-207 -260 0
-207 -261 0
-207 -262 0
-207 -263 0
-207 -264 0
-207 -265 0
-207 -266 0
-207 -267 0
-207 -268 0
-207 -269 0
-207 -270 0
-207 -271 0
-207 -272 0
-207 -273 0
-207 -274 0
-207 -275 0
-207 -276 0
-207 -277 0
-207 -278 0
-207 -279 0
-207 -280 0
-207 -281 0
-207 -282 0
-207 -283 0
-207 -284 0
-207 -285 0
-207 -286 0
-207 -287 0
-207 -288 0
-207 -289 0
-208 -209 0
-208 -210 0
-208 -211 0
-208 -212 0
-208 -213 0
-208 -214 0
-208 -215 0
-208 -216 0
-208 -217 0
-208 -218 0
-208 -219 0
-208 -220 0
-208 -221 0
-208 -222 0
-208 -223 0
-208 -224 0
-208 -225 0
-208 -226 0
-208 -227 0
-208 -228 0
-208 -229 0
-208 -230 0
-208 -231 0
-208 -232 0
-208 -233 0
-208 -234 0
-208 -235 0
-208 -236 0
-208 -237 0
-208 -238 0
-208 -239 0
-208 -240 0
-208 -241 0
-208 -242 0
-208 -243 0
-208 -244 0
-208 -245 0
-208 -246 0
-208 -247 0
-208 -248 0
-208 -249 0
-208 -250 0
-208 -251 0
-208 -252 0
-208 -253 0
-208 -254 0
-208 -255 0
-208 -256 0
-208 -257 0
-208 -258 0
-208 -259 0
-208 -260 0
-208 -261 0
-208 -262 0
-208 -263 0
-208 -264 0
-208 -265 0
-208 -266 0
-208 -267 0
-208 -268 0
-208 -269 0
-208 -270 0
-208 -271 0
-208 -272 0
-208 -273 0
-208 -274 0
-208 -275 0
-208 -276 0
-208 -277 0
-208 -278 0
-208 -279 0
-208 -280 0
-208 -281 0
-208 -282 0
-208 -283 0
-208 -284 0
-208 -285 0
-208 -286 0
-208 -287 0
-208 -288 0
-208 -289 0
-209 -210 0
-209 -211 0
-209 -212 0
-209 -213 0
-209 -214 0
-209 -215 0
-209 -216 0
-209 -217 0
-209 -218 0
-209 -219 0
-209 -220 0
-209 -221 0
-209 -222 0
-209 -223 0
-209 -224 0
-209 -225 0
-209 -226 0
-209 -227 0
-209 -228 0
-209 -229 0
-209 -230 0
-209 -231 0
-209 -232 0
-209 -233 0
-209 -234 0
-209 -235 0
-209 -236 0
-209 -237 0
-209 -238 0
-209 -239 0
-209 -240 0
-209 -241 0
-209 -242 0
-209 -243 0
-209 -244 0
-209 -245 0
-209 -246 0
-209 -247 0
-209 -248 0
-209 -249 0
-209 -250 0
-209 -251 0
-209 -252 0
-209 -253 0
-209 -254 0
-209 -255 0
-209 -256 0
-209 -257 0
-209 -258 0
-209 -259 0
-209 -260 0
-209 -261 0
-209 -262 0
-209 -263 0
-209 -264 0
-209 -265 0
-209 -266 0
-209 -267 0
-209 -268 0
-209 -269 0
-209 -270 0
-209 -271 0
-209 -272 0
-209 -273 0
-209 -274 0
-209 -275 0
-209 -276 0
-209 -277 0
-209 -278 0
-209 -279 0
-209 -280 0
-209 -281 0
-209 -282 0
-209 -283 0
-209 -284 0
-209 -285 0
-209 -286 0
-209 -287 0
-209 -288 0
-209 -289 0
-210 -211 0
-210 -212 0
-210 -213 0
-210 -214 0
-210 -215 0
-210 -216 0
-210 -217 0
-210 -218 0
-210 -219 0
-210 -220 0
-210 -221 0
-210 -222 0
-210 -223 0
-210 -224 0
-210 -225 0
-210 -226 0
-210 -227 0
-210 -228 0
-210 -229 0
-210 -230 0
-210 -231 0
-210 -232 0
-210 -233 0
-210 -234 0
-210 -235 0
-210 -236 0
-210 -237 0
-210 -238 0
-210 -239 0
-210 -240 0
-210 -241 0
-210 -242 0
-210 -243 0
-210 -244 0
-210 -245 0
-210 -246 0
-210 -247 0
-210 -248 0
-210 -249 0
-210 -250 0
-210 -251 0
-210 -252 0
-210 -253 0
-210 -254 0
-210 -255 0
-210 -256 0
-210 -257 0
-210 -258 0
-210 -259 0
-210 -260 0
-210 -261 0
-210 -262 0
-210 -263 0
-210 -264 0
-210 -265 0
-210 -266 0
-210 -267 0
-210 -268 0
-210 -269 0
-210 -270 0
-210 -271 0
-210 -272 0
-210 -273 0
-210 -274 0
-210 -275 0
-210 -276 0
-210 -277 0
-210 -278 0
-210 -279 0
-210 -280 0
-210 -281 0
-210 -282 0
-210 -283 0
-210 -284 0
-210 -285 0
-210 -286 0
-210 -287 0
-210 -288 0
-210 -289 0
-211 -212 0
-211 -213 0
-211 -214 0
-211 -215 0
-211 -216 0
-211 -217 0
-211 -218 0
-211 -219 0
-211 -220 0
-211 -221 0
-211 -222 0
-211 -223 0
-211 -224 0
-211 -225 0
-211 -226 0
-211 -227 0
-211 -228 0
-211 -229 0
-211 -230 0
-211 -231 0
-211 -232 0
-211 -233 0
-211 -234 0
-211 -235 0
-211 -236 0
-211 -237 0
-211 -238 0
-211 -239 0
-211 -240 0
-211 -241 0
-211 -242 0
-211 -243 0
-211 -244 0
-211 -245 0
-211 -246 0
-211 -247 0
-211 -248 0
-211 -249 0
-211 -250 0
-211 -251 0
-211 -252 0
-211 -253 0
-211 -254 0
-211 -255 0
-211 -256 0
-211 -257 0
-211 -258 0
-211 -259 0
-211 -260 0
-211 -261 0
-211 -262 0
-211 -263 0
-211 -264 0
-211 -265 0
-211 -266 0
-211 -267 0
-211 -268 0
-211 -269 0
-211 -270 0
-211 -271 0
-211 -272 0
-211 -273 0
-211 -274 0
-211 -275 0
-211 -276 0
-211 -277 0
-211 -278 0
-211 -279 0
-211 -280 0
-211 -281 0
-211 -282 0
-211 -283 0
-211 -284 0
-211 -285 0
-211 -286 0
-211 -287 0
-211 -288 0
-211 -289 0
-212 -213 0
-212 -214 0
-212 -215 0
-212 -216 0
-212 -217 0
-212 -218 0
-212 -219 0
-212 -220 0
-212 -221 0
-212 -222 0
-212 -223 0
-212 -224 0
-212 -225 0
-212 -226 0
-212 -227 0
-212 -228 0
-212 -229 0
-212 -230 0
-212 -231 0
-212 -232 0
-212 -233 0
-212 -234 0
-212 -235 0
-212 -236 0
-212 -237 0
-212 -238 0
-212 -239 0
-212 -240 0
-212 -241 0
-212 -242 0
-212 -243 0
-212 -244 0
-212 -245 0
-212 -246 0
-212 -247 0
-212 -248 0
-212 -249 0
-212 -250 0
-212 -251 0
-212 -252 0
-212 -253 0
-212 -254 0
-212 -255 0
-212 -256 0
-212 -257 0
-212 -258 0
-212 -259 0
-212 -260 0
-212 -261 0
-212 -262 0
-212 -263 0
-212 -264 0
-212 -265 0
-212 -266 0
-212 -267 0
-212 -268 0
-212 -269 0
-212 -270 0
-212 -271 0
-212 -272 0
-212 -273 0
-212 -274 0
-212 -275 0
-212 -276 0
-212 -277 0
-212 -278 0
-212 -279 0
-212 -280 0
-212 -281 0
-212 -282 0
-212 -283 0
-212 -284 0
-212 -285 0
-212 -286 0
-212 -287 0
-212 -288 0
-212 -289 0
-213 -214 0
-213 -215 0
-213 -216 0
-213 -217 0
-213 -218 0
-213 -219 0
-213 -220 0
-213 -221 0
-213 -222 0
-213 -223 0
-213 -224 0
-213 -225 0
-213 -226 0
-213 -227 0
-213 -228 0
-213 -229 0
-213 -230 0
-213 -231 0
-213 -232 0
-213 -233 0
-213 -234 0
-213 -235 0
-213 -236 0
-213 -237 0
-213 -238 0
-213 -239 0
-213 -240 0
-213 -241 0
-213 -242 0
-213 -243 0
-213 -244 0
-213 -245 0
-213 -246 0
-213 -247 0
-213 -248 0
-213 -249 0
-213 -250 0
-213 -251 0
-213 -252 0
-213 -253 0
-213 -254 0
-213 -255 0
-213 -256 0
-213 -257 0
-213 -258 0
-213 -259 0
-213 -260 0
-213 -261 0
-213 -262 0
-213 -263 0
-213 -264 0
-213 -265 0
-213 -266 0
-213 -267 0
-213 -268 0
-213 -269 0
-213 -270 0
-213 -271 0
-213 -272 0
-213 -273 0
-213 -274 0
-213 -275 0
-213 -276 0
-213 -277 0
-213 -278 0
-213 -279 0
-213 -280 0
-213 -281 0
-213 -282 0
-213 -283 0
-213 -284 0
-213 -285 0
-213 -286 0
-213 -287 0
-213 -288 0
-213 -289 0
-214 -215 0
-214 -216 0
-214 -217 0
-214 -218 0
-214 -219 0
-214 -220 0
-214 -221 0
-214 -222 0
-214 -223 0
-214 -224 0
-214 -225 0
-214 -226 0
-214 -227 0
-214 -228 0
-214 -229 0
-214 -230 0
-214 -231 0
-214 -232 0
-214 -233 0
-214 -234 0
-214 -235 0
-214 -236 0
-214 -237 0
-214 -238 0
-214 -239 0
-214 -240 0
-214 -241 0
-214 -242 0
-214 -243 0
-214 -244 0
-214 -245 0
-214 -246 0
-214 -247 0
-214 -248 0
-214 -249 0
-214 -250 0
-214 -251 0
-214 -252 0
-214 -253 0
-214 -254 0
-214 -255 0
-214 -256 0
-214 -257 0
-214 -258 0
-214 -259 0
-214 -260 0
-214 -261 0
-214 -262 0
-214 -263 0
-214 -264 0
-214 -265 0
-214 -266 0
-214 -267 0
-214 -268 0
-214 -269 0
-214 -270 0
-214 -271 0
-214 -272 0
-214 -273 0
-214 -274 0
-214 -275 0
-214 -276 0
-214 -277 0
-214 -278 0
-214 -279 0
-214 -280 0
-214 -281 0
-214 -282 0
-214 -283 0
-214 -284 0
-214 -285 0
-214 -286 0
-214 -287 0
-214 -288 0
-214 -289 0
-215 -216 0
-215 -217 0
-215 -218 0
-215 -219 0
-215 -220 0
-215 -221 0
-215 -222 0
-215 -223 0
-215 -224 0
-215 -225 0
-215 -226 0
-215 -227 0
-215 -228 0
-215 -229 0
-215 -230 0
-215 -231 0
-215 -232 0
-215 -233 0
-215 -234 0
-215 -235 0
-215 -236 0
-215 -237 0
-215 -238 0
-215 -239 0
-215 -240 0
-215 -241 0
-215 -242 0
-215 -243 0
-215 -244 0
-215 -245 0
-215 -246 0
-215 -247 0
-215 -248 0
-215 -249 0
-215 -250 0
-215 -251 0
-215 -252 0
-215 -253 0
-215 -254 0
-215 -255 0
-215 -256 0
-215 -257 0
-215 -258 0
-215 -259 0
-215 -260 0
-215 -261 0
-215 -262 0
-215 -263 0
-215 -264 0
-215 -265 0
-215 -266 0
-215 -267 0
-215 -268 0
-215 -269 0
-215 -270 0
-215 -271 0
-215 -272 0
-215 -273 0
-215 -274 0
-215 -275 0
-215 -276 0
-215 -277 0
-215 -278 0
-215 -279 0
-215 -280 0
-215 -281 0
-215 -282 0
-215 -283 0
-215 -284 0
-215 -285 0
-215 -286 0
-215 -287 0
-215 -288 0
-215 -289 0
-216 -217 0
-216 -218 0
-216 -219 0
-216 -220 0
-216 -221 0
-216 -222 0
-216 -223 0
-216 -224 0
-216 -225 0
-216 -226 0
-216 -227 0
-216 -228 0
-216 -229 0
-216 -230 0
-216 -231 0
-216 -232 0
-216 -233 0
-216 -234 0
-216 -235 0
-216 -236 0
-216 -237 0
-216 -238 0
-216 -239 0
-216 -240 0
-216 -241 0
-216 -242 0
-216 -243 0
-216 -244 0
-216 -245 0
-216 -246 0
-216 -247 0
-216 -248 0
-216 -249 0
-216 -250 0
-216 -251 0
-216 -252 0
-216 -253 0
-216 -254 0
-216 -255 0
-216 -256 0
-216 -257 0
-216 -258 0
-216 -259 0
-216 -260 0
-216 -261 0
-216 -262 0
-216 -263 0
-216 -264 0
-216 -265 0
-216 -266 0
-216 -267 0
-216 -268 0
-216 -269 0
-216 -270 0
-216 -271 0
-216 -272 0
-216 -273 0
-216 -274 0
-216 -275 0
-216 -276 0
-216 -277 0
-216 -278 0
-216 -279 0
-216 -280 0
-216 -281 0
-216 -282 0
-216 -283 0
-216 -284 0
-216 -285 0
-216 -286 0
-216 -287 0
-216 -288 0
-216 -289 0
-217 -218 0
-217 -219 0
-217 -220 0
-217 -221 0
-217 -222 0
-217 -223 0
-217 -224 0
-217 -225 0
-217 -226 0
-217 -227 0
-217 -228 0
-217 -229 0
-217 -230 0
-217 -231 0
-217 -232 0
-217 -233 0
-217 -234 0
-217 -235 0
-217 -236 0
-217 -237 0
-217 -238 0
-217 -239 0
-217 -240 0
-217 -241 0
-217 -242 0
-217 -243 0
-217 -244 0
-217 -245 0
-217 -246 0
-217 -247 0
-217 -248 0
-217 -249 0
-217 -250 0
-217 -251 0
-217 -252 0
-217 -253 0
-217 -254 0
-217 -255 0
-217 -256 0
-217 -257 0
-217 -258 0
-217 -259 0
-217 -260 0
-217 -261 0
-217 -262 0
-217 -263 0
-217 -264 0
-217 -265 0
-217 -266 0
-217 -267 0
-217 -268 0
-217 -269 0
-217 -270 0
-217 -271 0
-217 -272 0
-217 -273 0
-217 -274 0
-217 -275 0
-217 -276 0
-217 -277 0
-217 -278 0
-217 -279 0
-217 -280 0
-217 -281 0
-217 -282 0
-217 -283 0
-217 -284 0
-217 -285 0
-217 -286 0
-217 -287 0
-217 -288 0
-217 -289 0
-218 -219 0
-218 -220 0
-218 -221 0
-218 -222 0
-218 -223 0
-218 -224 0
-218 -225 0
-218 -226 0
-218 -227 0
-218 -228 0
-218 -229 0
-218 -230 0
-218 -231 0
-218 -232 0
-218 -233 0
-218 -234 0
-218 -235 0
-218 -236 0
-218 -237 0
-218 -238 0
-218 -239 0
-218 -240 0
-218 -241 0
-218 -242 0
-218 -243 0
-218 -244 0
-218 -245 0
-218 -246 0
-218 -247 0
-218 -248 0
-218 -249 0
-218 -250 0
-218 -251 0
-218 -252 0
-218 -253 0
-218 -254 0
-218 -255 0
-218 -256 0
-218 -257 0
-218 -258 0
-218 -259 0
-218 -260 0
-218 -261 0
-218 -262 0
-218 -263 0
-218 -264 0
-218 -265 0
-218 -266 0
-218 -267 0
-218 -268 0
-218 -269 0
-218 -270 0
-218 -271 0
-218 -272 0
-218 -273 0
-218 -274 0
-218 -275 0
-218 -276 0
-218 -277 0
-218 -278 0
-218 -279 0
-218 -280 0
-218 -281 0
-218 -282 0
-218 -283 0
-218 -284 0
-218 -285 0
-218 -286 0
-218 -287 0
-218 -288 0
-218 -289 0
-219 -220 0
-219 -221 0
-219 -222 0
-219 -223 0
-219 -224 0
-219 -225 0
-219 -226 0
-219 -227 0
-219 -228 0
-219 -229 0
-219 -230 0
-219 -231 0
-219 -232 0
-219 -233 0
-219 -234 0
-219 -235 0
-219 -236 0
-219 -237 0
-219 -238 0
-219 -239 0
-219 -240 0
-219 -241 0
-219 -242 0
-219 -243 0
-219 -244 0
-219 -245 0
-219 -246 0
-219 -247 0
-219 -248 0
-219 -249 0
-219 -250 0
-219 -251 0
-219 -252 0
-219 -253 0
-219 -254 0
-219 -255 0
-219 -256 0
-219 -257 0
-219 -258 0
-219 -259 0
-219 -260 0
-219 -261 0
-219 -262 0
-219 -263 0
-219 -264 0
-219 -265 0
-219 -266 0
-219 -267 0
-219 -268 0
-219 -269 0
-219 -270 0
-219 -271 0
-219 -272 0
-219 -273 0
-219 -274 0
-219 -275 0
-219 -276 0
-219 -277 0
-219 -278 0
-219 -279 0
-219 -280 0
-219 -281 0
-219 -282 0
-219 -283 0
-219 -284 0
-219 -285 0
-219 -286 0
-219 -287 0
-219 -288 0
-219 -289 0
-220 -221 0
-220 -222 0
-220 -223 0
-220 -224 0
-220 -225 0
-220 -226 0
-220 -227 0
-220 -228 0
-220 -229 0
-220 -230 0
-220 -231 0
-220 -232 0
-220 -233 0
-220 -234 0
-220 -235 0
-220 -236 0
-220 -237 0
-220 -238 0
-220 -239 0
-220 -240 0
-220 -241 0
-220 -242 0
-220 -243 0
-220 -244 0
-220 -245 0
-220 -246 0
-220 -247 0
-220 -248 0
-220 -249 0
-220 -250 0
-220 -251 0
-220 -252 0
-220 -253 0
-220 -254 0
-220 -255 0
-220 -256 0
-220 -257 0
-220 -258 0
-220 -259 0
-220 -260 0
-220 -261 0
-220 -262 0
-220 -263 0
-220 -264 0
-220 -265 0
-220 -266 0
-220 -267 0
-220 -268 0
-220 -269 0
-220 -270 0
-220 -271 0
-220 -272 0
-220 -273 0
-220 -274 0
-220 -275 0
-220 -276 0
-220 -277 0
-220 -278 0
-220 -279 0
-220 -280 0
-220 -281 0
-220 -282 0
-220 -283 0
-220 -284 0
-220 -285 0
-220 -286 0
-220 -287 0
-220 -288 0
-220 -289 0
-221 -222 0
-221 -223 0
-221 -224 0
-221 -225 0
-221 -226 0
-221 -227 0
-221 -228 0
-221 -229 0
-221 -230 0
-221 -231 0
-221 -232 0
-221 -233 0
-221 -234 0
-221 -235 0
-221 -236 0
-221 -237 0
-221 -238 0
-221 -239 0
-221 -240 0
-221 -241 0
-221 -242 0
-221 -243 0
-221 -244 0
-221 -245 0
-221 -246 0
-221 -247 0
-221 -248 0
-221 -249 0
-221 -250 0
-221 -251 0
-221 -252 0
-221 -253 0
-221 -254 0
-221 -255 0
-221 -256 0
-221 -257 0
-221 -258 0
-221 -259 0
-221 -260 0
-221 -261 0
-221 -262 0
-221 -263 0
-221 -264 0
-221 -265 0
-221 -266 0
-221 -267 0
-221 -268 0
-221 -269 0
-221 -270 0
-221 -271 0
-221 -272 0
-221 -273 0
-221 -274 0
-221 -275 0
-221 -276 0
-221 -277 0
-221 -278 0
-221 -279 0
-221 -280 0
-221 -281 0
-221 -282 0
-221 -283 0
-221 -284 0
-221 -285 0
-221 -286 0
-221 -287 0
-221 -288 0
-221 -289 0
-222 -223 0
-222 -224 0
-222 -225 0
-222 -226 0
-222 -227 0
-222 -228 0
-222 -229 0
-222 -230 0
-222 -231 0
-222 -232 0
-222 -233 0
-222 -234 0
-222 -235 0
-222 -236 0
-222 -237 0
-222 -238 0
-222 -239 0
-222 -240 0
-222 -241 0
-222 -242 0
-222 -243 0
-222 -244 0
-222 -245 0
-222 -246 0
-222 -247 0
-222 -248 0
-222 -249 0
-222 -250 0
-222 -251 0
-222 -252 0
-222 -253 0
-222 -254 0
-222 -255 0
-222 -256 0
-222 -257 0
-222 -258 0
-222 -259 0
-222 -260 0
-222 -261 0
-222 -262 0
-222 -263 0
-222 -264 0
-222 -265 0
-222 -266 0
-222 -267 0
-222 -268 0
-222 -269 0
-222 -270 0
-222 -271 0
-222 -272 0
-222 -273 0
-222 -274 0
-222 -275 0
-222 -276 0
-222 -277 0
-222 -278 0
-222 -279 0
-222 -280 0
-222 -281 0
-222 -282 0
-222 -283 0
-222 -284 0
-222 -285 0
-222 -286 0
-222 -287 0
-222 -288 0
-222 -289 0
-223 -224 0
-223 -225 0
-223 -226 0
-223 -227 0
-223 -228 0
-223 -229 0
-223 -230 0
-223 -231 0
-223 -232 0
-223 -233 0
-223 -234 0
-223 -235 0
-223 -236 0
-223 -237 0
-223 -238 0
-223 -239 0
-223 -240 0
-223 -241 0
-223 -242 0
-223 -243 0
-223 -244 0
-223 -245 0
-223 -246 0
-223 -247 0
-223 -248 0
-223 -249 0
-223 -250 0
-223 -251 0
-223 -252 0
-223 -253 0
-223 -254 0
-223 -255 0
-223 -256 0
-223 -257 0
-223 -258 0
-223 -259 0
-223 -260 0
-223 -261 0
-223 -262 0
-223 -263 0
-223 -264 0
-223 -265 0
-223 -266 0
-223 -267 0
-223 -268 0
-223 -269 0
-223 -270 0
-223 -271 0
-223 -272 0
-223 -273 0
-223 -274 0
-223 -275 0
-223 -276 0
-223 -277 0
-223 -278 0
-223 -279 0
-223 -280 0
-223 -281 0
-223 -282 0
-223 -283 0
-223 -284 0
-223 -285 0
-223 -286 0
-223 -287 0
-223 -288 0
-223 -289 0
-224 -225 0
-224 -226 0
-224 -227 0
-224 -228 0
-224 -229 0
-224 -230 0
-224 -231 0
-224 -232 0
-224 -233 0
-224 -234 0
-224 -235 0
-224 -236 0
-224 -237 0
-224 -238 0
-224 -239 0
-224 -240 0
-224 -241 0
-224 -242 0
-224 -243 0
-224 -244 0
-224 -245 0
-224 -246 0
-224 -247 0
-224 -248 0
-224 -249 0
-224 -250 0
-224 -251 0
-224 -252 0
-224 -253 0
-224 -254 0
-224 -255 0
-224 -256 0
-224 -257 0
-224 -258 0
-224 -259 0
-224 -260 0
-224 -261 0
-224 -262 0
-224 -263 0
-224 -264 0
-224 -265 0
-224 -266 0
-224 -267 0
-224 -268 0
-224 -269 0
-224 -270 0
-224 -271 0
-224 -272 0
-224 -273 0
-224 -274 0
-224 -275 0
-224 -276 0
-224 -277 0
-224 -278 0
-224 -279 0
-224 -280 0
-224 -281 0
-224 -282 0
-224 -283 0
-224 -284 0
-224 -285 0
-224 -286 0
-224 -287 0
-224 -288 0
-224 -289 0
-225 -226 0
-225 -227 0
-225 -228 0
-225 -229 0
-225 -230 0
-225 -231 0
-225 -232 0
-225 -233 0
-225 -234 0
-225 -235 0
-225 -236 0
-225 -237 0
-225 -238 0
-225 -239 0
-225 -240 0
-225 -241 0
-225 -242 0
-225 -243 0
-225 -244 0
-225 -245 0
-225 -246 0
-225 -247 0
-225 -248 0
-225 -249 0
-225 -250 0
-225 -251 0
-225 -252 0
-225 -253 0
-225 -254 0
-225 -255 0
-225 -256 0
-225 -257 0
-225 -258 0
-225 -259 0
-225 -260 0
-225 -261 0
-225 -262 0
-225 -263 0
-225 -264 0
-225 -265 0
-225 -266 0
-225 -267 0
-225 -268 0
-225 -269 0
-225 -270 0
-225 -271 0
-225 -272 0
-225 -273 0
-225 -274 0
-225 -275 0
-225 -276 0
-225 -277 0
-225 -278 0
-225 -279 0
-225 -280 0
-225 -281 0
-225 -282 0
-225 -283 0
-225 -284 0
-225 -285 0
-225 -286 0
-225 -287 0
-225 -288 0
-225 -289 0
-226 -227 0
-226 -228 0
-226 -229 0
-226 -230 0
-226 -231 0
-226 -232 0
-226 -233 0
-226 -234 0
-226 -235 0
-226 -236 0
-226 -237 0
-226 -238 0
-226 -239 0
-226 -240 0
-226 -241 0
-226 -242 0
-226 -243 0
-226 -244 0
-226 -245 0
-226 -246 0
-226 -247 0
-226 -248 0
-226 -249 0
-226 -250 0
-226 -251 0
-226 -252 0
-226 -253 0
-226 -254 0
-226 -255 0
-226 -256 0
-226 -257 0
-226 -258 0
-226 -259 0
-226 -260 0
-226 -261 0
-226 -262 0
-226 -263 0
-226 -264 0
-226 -265 0
-226 -266 0
-226 -267 0
-226 -268 0
-226 -269 0
-226 -270 0
-226 -271 0
-226 -272 0
-226 -273 0
-226 -274 0
-226 -275 0
-226 -276 0
-226 -277 0
-226 -278 0
-226 -279 0
-226 -280 0
-226 -281 0
-226 -282 0
-226 -283 0
-226 -284 0
-226 -285 0
-226 -286 0
-226 -287 0
-226 -288 0
-226 -289 0
-227 -228 0
-227 -229 0
-227 -230 0
-227 -231 0
-227 -232 0
-227 -233 0
-227 -234 0
-227 -235 0
-227 -236 0
-227 -237 0
-227 -238 0
-227 -239 0
-227 -240 0
-227 -241 0
-227 -242 0
-227 -243 0
-227 -244 0
-227 -245 0
-227 -246 0
-227 -247 0
-227 -248 0
-227 -249 0
-227 -250 0
-227 -251 0
-227 -252 0
-227 -253 0
-227 -254 0
-227 -255 0
-227 -256 0
-227 -257 0
-227 -258 0
-227 -259 0
-227 -260 0
-227 -261 0
-227 -262 0
-227 -263 0
-227 -264 0
-227 -265 0
-227 -266 0
-227 -267 0
-227 -268 0
-227 -269 0
-227 -270 0
-227 -271 0
-227 -272 0
-227 -273 0
-227 -274 0
-227 -275 0
-227 -276 0
-227 -277 0
-227 -278 0
-227 -279 0
-227 -280 0
-227 -281 0
-227 -282 0
-227 -283 0
-227 -284 0
-227 -285 0
-227 -286 0
-227 -287 0
-227 -288 0
-227 -289 0
-228 -229 0
-228 -230 0
-228 -231 0
-228 -232 0
-228 -233 0
-228 -234 0
-228 -235 0
-228 -236 0
-228 -237 0
-228 -238 0
-228 -239 0
-228 -240 0
-228 -241 0
-228 -242 0
-228 -243 0
-228 -244 0
-228 -245 0
-228 -246 0
-228 -247 0
-228 -248 0
-228 -249 0
-228 -250 0
-228 -251 0
-228 -252 0
-228 -253 0
-228 -254 0
-228 -255 0
-228 -256 0
-228 -257 0
-228 -258 0
-228 -259 0
-228 -260 0
-228 -261 0
-228 -262 0
-228 -263 0
-228 -264 0
-228 -265 0
-228 -266 0
-228 -267 0
-228 -268 0
-228 -269 0
-228 -270 0
-228 -271 0
-228 -272 0
-228 -273 0
-228 -274 0
-228 -275 0
-228 -276 0
-228 -277 0
-228 -278 0
-228 -279 0
-228 -280 0
-228 -281 0
-228 -282 0
-228 -283 0
-228 -284 0
-228 -285 0
-228 -286 0
-228 -287 0
-228 -288 0
-228 -289 0
-229 -230 0
-229 -231 0
-229 -232 0
-229 -233 0
-229 -234 0
-229 -235 0
-229 -236 0
-229 -237 0
-229 -238 0
-229 -239 0
-229 -240 0
-229 -241 0
-229 -242 0
-229 -243 0
-229 -244 0
-229 -245 0
-229 -246 0
-229 -247 0
-229 -248 0
-229 -249 0
-229 -250 0
-229 -251 0
-229 -252 0
-229 -253 0
-229 -254 0
-229 -255 0
-229 -256 0
-229 -257 0
-229 -258 0
-229 -259 0
-229 -260 0
-229 -261 0
-229 -262 0
-229 -263 0
-229 -264 0
-229 -265 0
-229 -266 0
-229 -267 0
-229 -268 0
-229 -269 0
-229 -270 0
-229 -271 0
-229 -272 0
-229 -273 0
-229 -274 0
-229 -275 0
-229 -276 0
-229 -277 0
-229 -278 0
-229 -279 0
-229 -280 0
-229 -281 0
-229 -282 0
-229 -283 0
-229 -284 0
-229 -285 0
-229 -286 0
-229 -287 0
-229 -288 0
-229 -289 0
-230 -231 0
-230 -232 0
-230 -233 0
-230 -234 0
-230 -235 0
-230 -236 0
-230 -237 0
-230 -238 0
-230 -239 0
-230 -240 0
-230 -241 0
-230 -242 0
-230 -243 0
-230 -244 0
-230 -245 0
-230 -246 0
-230 -247 0
-230 -248 0
-230 -249 0
-230 -250 0
-230 -251 0
-230 -252 0
-230 -253 0
-230 -254 0
-230 -255 0
-230 -256 0
-230 -257 0
-230 -258 0
-230 -259 0
-230 -260 0
-230 -261 0
-230 -262 0
-230 -263 0
-230 -264 0
-230 -265 0
-230 -266 0
-230 -267 0
-230 -268 0
-230 -269 0
-230 -270 0
-230 -271 0
-230 -272 0
-230 -273 0
-230 -274 0
-230 -275 0
-230 -276 0
-230 -277 0
-230 -278 0
-230 -279 0
-230 -280 0
-230 -281 0
-230 -282 0
-230 -283 0
-230 -284 0
-230 -285 0
-230 -286 0
-230 -287 0
-230 -288 0
-230 -289 0
-231 -232 0
-231 -233 0
-231 -234 0
-231 -235 0
-231 -236 0
-231 -237 0
-231 -238 0
-231 -239 0
-231 -240 0
-231 -241 0
-231 -242 0
-231 -243 0
-231 -244 0
-231 -245 0
-231 -246 0
-231 -247 0
-231 -248 0
-231 -249 0
-231 -250 0
-231 -251 0
-231 -252 0
-231 -253 0
-231 -254 0
-231 -255 0
-231 -256 0
-231 -257 0
-231 -258 0
-231 -259 0
-231 -260 0
-231 -261 0
-231 -262 0
-231 -263 0
-231 -264 0
-231 -265 0
-231 -266 0
-231 -267 0
-231 -268 0
-231 -269 0
-231 -270 0
-231 -271 0
-231 -272 0
-231 -273 0
-231 -274 0
-231 -275 0
-231 -276 0
-231 -277 0
-231 -278 0
-231 -279 0
-231 -280 0
-231 -281 0
-231 -282 0
-231 -283 0
-231 -284 0
-231 -285 0
-231 -286 0
-231 -287 0
-231 -288 0
-231 -289 0
-232 -233 0
-232 -234 0
-232 -235 0
-232 -236 0
-232 -237 0
-232 -238 0
-232 -239 0
-232 -240 0
-232 -241 0
-232 -242 0
-232 -243 0
-232 -244 0
-232 -245 0
-232 -246 0
-232 -247 0
-232 -248 0
-232 -249 0
-232 -250 0
-232 -251 0
-232 -252 0
-232 -253 0
-232 -254 0
-232 -255 0
-232 -256 0
-232 -257 0
-232 -258 0
-232 -259 0
-232 -260 0
-232 -261 0
-232 -262 0
-232 -263 0
-232 -264 0
-232 -265 0
-232 -266 0
-232 -267 0
-232 -268 0
-232 -269 0
-232 -270 0
-232 -271 0
-232 -272 0
-232 -273 0
-232 -274 0
-232 -275 0
-232 -276 0
-232 -277 0
-232 -278 0
-232 -279 0
-232 -280 0
-232 -281 0
-232 -282 0
-232 -283 0
-232 -284 0
-232 -285 0
-232 -286 0
-232 -287 0
-232 -288 0
-232 -289 0
-233 -234 0
-233 -235 0
-233 -236 0
-233 -237 0
-233 -238 0
-233 -239 0
-233 -240 0
-233 -241 0
-233 -242 0
-233 -243 0
-233 -244 0
-233 -245 0
-233 -246 0
-233 -247 0
-233 -248 0
-233 -249 0
-233 -250 0
-233 -251 0
-233 -252 0
-233 -253 0
-233 -254 0
-233 -255 0
-233 -256 0
-233 -257 0
-233 -258 0
-233 -259 0
-233 -260 0
-233 -261 0
-233 -262 0
-233 -263 0
-233 -264 0
-233 -265 0
-233 -266 0
-233 -267 0
-233 -268 0
-233 -269 0
-233 -270 0
-233 -271 0
-233 -272 0
-233 -273 0
-233 -274 0
-233 -275 0
-233 -276 0
-233 -277 0
-233 -278 0
-233 -279 0
-233 -280 0
-233 -281 0
-233 -282 0
-233 -283 0
-233 -284 0
-233 -285 0
-233 -286 0
-233 -287 0
-233 -288 0
-233 -289 0
-234 -235 0
-234 -236 0
-234 -237 0
-234 -238 0
-234 -239 0
-234 -240 0
-234 -241 0
-234 -242 0
-234 -243 0
-234 -244 0
-234 -245 0
-234 -246 0
-234 -247 0
-234 -248 0
-234 -249 0
-234 -250 0
-234 -251 0
-234 -252 0
-234 -253 0
-234 -254 0
-234 -255 0
-234 -256 0
-234 -257 0
-234 -258 0
-234 -259 0
-234 -260 0
-234 -261 0
-234 -262 0
-234 -263 0
-234 -264 0
-234 -265 0
-234 -266 0
-234 -267 0
-234 -268 0
-234 -269 0
-234 -270 0
-234 -271 0
-234 -272 0
-234 -273 0
-234 -274 0
-234 -275 0
-234 -276 0
-234 -277 0
-234 -278 0
-234 -279 0
-234 -280 0
-234 -281 0
-234 -282 0
-234 -283 0
-234 -284 0
-234 -285 0
-234 -286 0
-234 -287 0
-234 -288 0
-234 -289 0
-235 -236 0
-235 -237 0
-235 -238 0
-235 -239 0
-235 -240 0
-235 -241 0
-235 -242 0
-235 -243 0
-235 -244 0
-235 -245 0
-235 -246 0
-235 -247 0
-235 -248 0
-235 -249 0
-235 -250 0
-235 -251 0
-235 -252 0
-235 -253 0
-235 -254 0
-235 -255 0
-235 -256 0
-235 -257 0
-235 -258 0
-235 -259 0
-235 -260 0
-235 -261 0
-235 -262 0
-235 -263 0
-235 -264 0
-235 -265 0
-235 -266 0
-235 -267 0
-235 -268 0
-235 -269 0
-235 -270 0
-235 -271 0
-235 -272 0
-235 -273 0
-235 -274 0
-235 -275 0
-235 -276 0
-235 -277 0
-235 -278 0
-235 -279 0
-235 -280 0
-235 -281 0
-235 -282 0
-235 -283 0
-235 -284 0
-235 -285 0
-235 -286 0
-235 -287 0
-235 -288 0
-235 -289 0
-236 -237 0
-236 -238 0
-236 -239 0
-236 -240 0
-236 -241 0
-236 -242 0
-236 -243 0
-236 -244 0
-236 -245 0
-236 -246 0
-236 -247 0
-236 -248 0
-236 -249 0
-236 -250 0
-236 -251 0
-236 -252 0
-236 -253 0
-236 -254 0
-236 -255 0
-236 -256 0
-236 -257 0
-236 -258 0
-236 -259 0
-236 -260 0
-236 -261 0
-236 -262 0
-236 -263 0
-236 -264 0
-236 -265 0
-236 -266 0
-236 -267 0
-236 -268 0
-236 -269 0
-236 -270 0
-236 -271 0
-236 -272 0
-236 -273 0
-236 -274 0
-236 -275 0
-236 -276 0
-236 -277 0
-236 -278 0
-236 -279 0
-236 -280 0
-236 -281 0
-236 -282 0
-236 -283 0
-236 -284 0
-236 -285 0
-236 -286 0
-236 -287 0
-236 -288 0
-236 -289 0
-237 -238 0
-237 -239 0
-237 -240 0
-237 -241 0
-237 -242 0
-237 -243 0
-237 -244 0
-237 -245 0
-237 -246 0
-237 -247 0
-237 -248 0
-237 -249 0
-237 -250 0
-237 -251 0
-237 -252 0
-237 -253 0
-237 -254 0
-237 -255 0
-237 -256 0
-237 -257 0
-237 -258 0
-237 -259 0
-237 -260 0
-237 -261 0
-237 -262 0
-237 -263 0
-237 -264 0
-237 -265 0
-237 -266 0
-237 -267 0
-237 -268 0
-237 -269 0
-237 -270 0
-237 -271 0
-237 -272 0
-237 -273 0
-237 -274 0
-237 -275 0
-237 -276 0
-237 -277 0
-237 -278 0
-237 -279 0
-237 -280 0
-237 -281 0
-237 -282 0
-237 -283 0
-237 -284 0
-237 -285 0
-237 -286 0
-237 -287 0
-237 -288 0
-237 -289 0
-238 -239 0
-238 -240 0
-238 -241 0
-238 -242 0
-238 -243 0
-238 -244 0
-238 -245 0
-238 -246 0
-238 -247 0
-238 -248 0
-238 -249 0
-238 -250 0
-238 -251 0
-238 -252 0
-238 -253 0
-238 -254 0
-238 -255 0
-238 -256 0
-238 -257 0
-238 -258 0
-238 -259 0
-238 -260 0
-238 -261 0
-238 -262 0
-238 -263 0
-238 -264 0
-238 -265 0
-238 -266 0
-238 -267 0
-238 -268 0
-238 -269 0
-238 -270 0
-238 -271 0
-238 -272 0
-238 -273 0
-238 -274 0
-238 -275 0
-238 -276 0
-238 -277 0
-238 -278 0
-238 -279 0
-238 -280 0
-238 -281 0
-238 -282 0
-238 -283 0
-238 -284 0
-238 -285 0
-238 -286 0
-238 -287 0
-238 -288 0
-238 -289 0
-239 -240 0
-239 -241 0
-239 -242 0
-239 -243 0
-239 -244 0
-239 -245 0
-239 -246 0
-239 -247 0
-239 -248 0
-239 -249 0
-239 -250 0
-239 -251 0
-239 -252 0
-239 -253 0
-239 -254 0
-239 -255 0
-239 -256 0
-239 -257 0
-239 -258 0
-239 -259 0
-239 -260 0
-239 -261 0
-239 -262 0
-239 -263 0
-239 -264 0
-239 -265 0
-239 -266 0
-239 -267 0
-239 -268 0
-239 -269 0
-239 -270 0
-239 -271 0
-239 -272 0
-239 -273 0
-239 -274 0
-239 -275 0
-239 -276 0
-239 -277 0
-239 -278 0
-239 -279 0
-239 -280 0
-239 -281 0
-239 -282 0
-239 -283 0
-239 -284 0
-239 -285 0
-239 -286 0
-239 -287 0
-239 -288 0
-239 -289 0
-240 -241 0
-240 -242 0
-240 -243 0
-240 -244 0
-240 -245 0
-240 -246 0
-240 -247 0
-240 -248 0
-240 -249 0
-240 -250 0
-240 -251 0
-240 -252 0
-240 -253 0
-240 -254 0
-240 -255 0
-240 -256 0
-240 -257 0
-240 -258 0
-240 -259 0
-240 -260 0
-240 -261 0
-240 -262 0
-240 -263 0
-240 -264 0
-240 -265 0
-240 -266 0
-240 -267 0
-240 -268 0
-240 -269 0
-240 -270 0
-240 -271 0
-240 -272 0
-240 -273 0
-240 -274 0
-240 -275 0
-240 -276 0
-240 -277 0
-240 -278 0
-240 -279 0
-240 -280 0
-240 -281 0
-240 -282 0
-240 -283 0
-240 -284 0
-240 -285 0
-240 -286 0
-240 -287 0
-240 -288 0
-240 -289 0
-241 -242 0
-241 -243 0
-241 -244 0
-241 -245 0
-241 -246 0
-241 -247 0
-241 -248 0
-241 -249 0
-241 -250 0
-241 -251 0
-241 -252 0
-241 -253 0
-241 -254 0
-241 -255 0
-241 -256 0
-241 -257 0
-241 -258 0
-241 -259 0
-241 -260 0
-241 -261 0
-241 -262 0
-241 -263 0
-241 -264 0
-241 -265 0
-241 -266 0
-241 -267 0
-241 -268 0
-241 -269 0
-241 -270 0
-241 -271 0
-241 -272 0
-241 -273 0
-241 -274 0
-241 -275 0
-241 -276 0
-241 -277 0
-241 -278 0
-241 -279 0
-241 -280 0
-241 -281 0
-241 -282 0
-241 -283 0
-241 -284 0
-241 -285 0
-241 -286 0
-241 -287 0
-241 -288 0
-241 -289 0
-242 -243 0
-242 -244 0
-242 -245 0
-242 -246 0
-242 -247 0
-242 -248 0
-242 -249 0
-242 -250 0
-242 -251 0
-242 -252 0
-242 -253 0
-242 -254 0
-242 -255 0
-242 -256 0
-242 -257 0
-242 -258 0
-242 -259 0
-242 -260 0
-242 -261 0
-242 -262 0
-242 -263 0
-242 -264 0
-242 -265 0
-242 -266 0
-242 -267 0
-242 -268 0
-242 -269 0
-242 -270 0
-242 -271 0
-242 -272 0
-242 -273 0
-242 -274 0
-242 -275 0
-242 -276 0
-242 -277 0
-242 -278 0
-242 -279 0
-242 -280 0
-242 -281 0
-242 -282 0
-242 -283 0
-242 -284 0
-242 -285 0
-242 -286 0
-242 -287 0
-242 -288 0
-242 -289 0
-243 -244 0
-243 -245 0
-243 -246 0
-243 -247 0
-243 -248 0
-243 -249 0
-243 -250 0
-243 -251 0
-243 -252 0
-243 -253 0
-243 -254 0
-243 -255 0
-243 -256 0
-243 -257 0
-243 -258 0
-243 -259 0
-243 -260 0
-243 -261 0
-243 -262 0
-243 -263 0
-243 -264 0
-243 -265 0
-243 -266 0
-243 -267 0
-243 -268 0
-243 -269 0
-243 -270 0
-243 -271 0
-243 -272 0
-243 -273 0
-243 -274 0
-243 -275 0
-243 -276 0
-243 -277 0
-243 -278 0
-243 -279 0
-243 -280 0
-243 -281 0
-243 -282 0
-243 -283 0
-243 -284 0
-243 -285 0
-243 -286 0
-243 -287 0
-243 -288 0
-243 -289 0
-244 -245 0
-244 -246 0
-244 -247 0
-244 -248 0
-244 -249 0
-244 -250 0
-244 -251 0
-244 -252 0
-244 -253 0
-244 -254 0
-244 -255 0
-244 -256 0
-244 -257 0
-244 -258 0
-244 -259 0
-244 -260 0
-244 -261 0
-244 -262 0
-244 -263 0
-244 -264 0
-244 -265 0
-244 -266 0
-244 -267 0
-244 -268 0
-244 -269 0
-244 -270 0
-244 -271 0
-244 -272 0
-244 -273 0
-244 -274 0
-244 -275 0
-244 -276 0
-244 -277 0
-244 -278 0
-244 -279 0
-244 -280 0
-244 -281 0
-244 -282 0
-244 -283 0
-244 -284 0
-244 -285 0
-244 -286 0
-244 -287 0
-244 -288 0
-244 -289 0
-245 -246 0
-245 -247 0
-245 -248 0
-245 -249 0
-245 -250 0
-245 -251 0
-245 -252 0
-245 -253 0
-245 -254 0
-245 -255 0
-245 -256 0
-245 -257 0
-245 -258 0
-245 -259 0
-245 -260 0
-245 -261 0
-245 -262 0
-245 -263 0
-245 -264 0
-245 -265 0
-245 -266 0
-245 -267 0
-245 -268 0
-245 -269 0
-245 -270 0
-245 -271 0
-245 -272 0
-245 -273 0
-245 -274 0
-245 -275 0
-245 -276 0
-245 -277 0
-245 -278 0
-245 -279 0
-245 -280 0
-245 -281 0
-245 -282 0
-245 -283 0
-245 -284 0
-245 -285 0
-245 -286 0
-245 -287 0
-245 -288 0
-245 -289 0
-246 -247 0
-246 -248 0
-246 -249 0
-246 -250 0
-246 -251 0
-246 -252 0
-246 -253 0
-246 -254 0
-246 -255 0
-246 -256 0
-246 -257 0
-246 -258 0
-246 -259 0
-246 -260 0
-246 -261 0
-246 -262 0
-246 -263 0
-246 -264 0
-246 -265 0
-246 -266 0
-246 -267 0
-246 -268 0
-246 -269 0
-246 -270 0
-246 -271 0
-246 -272 0
-246 -273 0
-246 -274 0
-246 -275 0
-246 -276 0
-246 -277 0
-246 -278 0
-246 -279 0
-246 -280 0
-246 -281 0
-246 -282 0
-246 -283 0
-246 -284 0
-246 -285 0
-246 -286 0
-246 -287 0
-246 -288 0
-246 -289 0
-247 -248 0
-247 -249 0
-247 -250 0
-247 -251 0
-247 -252 0
-247 -253 0
-247 -254 0
-247 -255 0
-247 -256 0
-247 -257 0
-247 -258 0
-247 -259 0
-247 -260 0
-247 -261 0
-247 -262 0
-247 -263 0
-247 -264 0
-247 -265 0
-247 -266 0
-247 -267 0
-247 -268 0
-247 -269 0
-247 -270 0
-247 -271 0
-247 -272 0
-247 -273 0
-247 -274 0
-247 -275 0
-247 -276 0
-247 -277 0
-247 -278 0
-247 -279 0
-247 -280 0
-247 -281 0
-247 -282 0
-247 -283 0
-247 -284 0
-247 -285 0
-247 -286 0
-247 -287 0
-247 -288 0
-247 -289 0
-248 -249 0
-248 -250 0
-248 -251 0
-248 -252 0
-248 -253 0
-248 -254 0
-248 -255 0
-248 -256 0
-248 -257 0
-248 -258 0
-248 -259 0
-248 -260 0
-248 -261 0
-248 -262 0
-248 -263 0
-248 -264 0
-248 -265 0
-248 -266 0
-248 -267 0
-248 -268 0
-248 -269 0
-248 -270 0
-248 -271 0
-248 -272 0
-248 -273 0
-248 -274 0
-248 -275 0
-248 -276 0
-248 -277 0
-248 -278 0
-248 -279 0
-248 -280 0
-248 -281 0
-248 -282 0
-248 -283 0
-248 -284 0
-248 -285 0
-248 -286 0
-248 -287 0
-248 -288 0
-248 -289 0
-249 -250 0
-249 -251 0
-249 -252 0
-249 -253 0
-249 -254 0
-249 -255 0
-249 -256 0
-249 -257 0
-249 -258 0
-249 -259 0
-249 -260 0
-249 -261 0
-249 -262 0
-249 -263 0
-249 -264 0
-249 -265 0
-249 -266 0
-249 -267 0
-249 -268 0
-249 -269 0
-249 -270 0
-249 -271 0
-249 -272 0
-249 -273 0
-249 -274 0
-249 -275 0
-249 -276 0
-249 -277 0
-249 -278 0
-249 -279 0
-249 -280 0
-249 -281 0
-249 -282 0
-249 -283 0
-249 -284 0
-249 -285 0
-249 -286 0
-249 -287 0
-249 -288 0
-249 -289 0
-250 -251 0
-250 -252 0
-250 -253 0
-250 -254 0
-250 -255 0
-250 -256 0
-250 -257 0
-250 -258 0
-250 -259 0
-250 -260 0
-250 -261 0
-250 -262 0
-250 -263 0
-250 -264 0
-250 -265 0
-250 -266 0
-250 -267 0
-250 -268 0
-250 -269 0
-250 -270 0
-250 -271 0
-250 -272 0
-250 -273 0
-250 -274 0
-250 -275 0
-250 -276 0
-250 -277 0
-250 -278 0
-250 -279 0
-250 -280 0
-250 -281 0
-250 -282 0
-250 -283 0
-250 -284 0
-250 -285 0
-250 -286 0
-250 -287 0
-250 -288 0
-250 -289 0
-251 -252 0
-251 -253 0
-251 -254 0
-251 -255 0
-251 -256 0
-251 -257 0
-251 -258 0
-251 -259 0
-251 -260 0
-251 -261 0
-251 -262 0
-251 -263 0
-251 -264 0
-251 -265 0
-251 -266 0
-251 -267 0
-251 -268 0
-251 -269 0
-251 -270 0
-251 -271 0
-251 -272 0
-251 -273 0
-251 -274 0
-251 -275 0
-251 -276 0
-251 -277 0
-251 -278 0
-251 -279 0
-251 -280 0
-251 -281 0
-251 -282 0
-251 -283 0
-251 -284 0
-251 -285 0
-251 -286 0
-251 -287 0
-251 -288 0
-251 -289 0
-252 -253 0
-252 -254 0
-252 -255 0
-252 -256 0
-252 -257 0
-252 -258 0
-252 -259 0
-252 -260 0
-252 -261 0
-252 -262 0
-252 -263 0
-252 -264 0
-252 -265 0
-252 -266 0
-252 -267 0
-252 -268 0
-252 -269 0
-252 -270 0
-252 -271 0
-252 -272 0
-252 -273 0
-252 -274 0
-252 -275 0
-252 -276 0
-252 -277 0
-252 -278 0
-252 -279 0
-252 -280 0
-252 -281 0
-252 -282 0
-252 -283 0
-252 -284 0
-252 -285 0
-252 -286 0
-252 -287 0
-252 -288 0
-252 -289 0
-253 -254 0
-253 -255 0
-253 -256 0
-253 -257 0
-253 -258 0
-253 -259 0
-253 -260 0
-253 -261 0
-253 -262 0
-253 -263 0
-253 -264 0
-253 -265 0
-253 -266 0
-253 -267 0
-253 -268 0
-253 -269 0
-253 -270 0
-253 -271 0
-253 -272 0
-253 -273 0
-253 -274 0
-253 -275 0
-253 -276 0
-253 -277 0
-253 -278 0
-253 -279 0
-253 -280 0
-253 -281 0
-253 -282 0
-253 -283 0
-253 -284 0
-253 -285 0
-253 -286 0
-253 -287 0
-253 -288 0
-253 -289 0
-254 -255 0
-254 -256 0
-254 -257 0
-254 -258 0
-254 -259 0
-254 -260 0
-254 -261 0
-254 -262 0
-254 -263 0
-254 -264 0
-254 -265 0
-254 -266 0
-254 -267 0
-254 -268 0
-254 -269 0
-254 -270 0
-254 -271 0
-254 -272 0
-254 -273 0
-254 -274 0
-254 -275 0
-254 -276 0
-254 -277 0
-254 -278 0
-254 -279 0
-254 -280 0
-254 -281 0
-254 -282 0
-254 -283 0
-254 -284 0
-254 -285 0
-254 -286 0
-254 -287 0
-254 -288 0
-254 -289 0
-255 -256 0
-255 -257 0
-255 -258 0
-255 -259 0
-255 -260 0
-255 -261 0
-255 -262 0
-255 -263 0
-255 -264 0
-255 -265 0
-255 -266 0
-255 -267 0
-255 -268 0
-255 -269 0
-255 -270 0
-255 -271 0
-255 -272 0
-255 -273 0
-255 -274 0
-255 -275 0
-255 -276 0
-255 -277 0
-255 -278 0
-255 -279 0
-255 -280 0
-255 -281 0
-255 -282 0
-255 -283 0
-255 -284 0
-255 -285 0
-255 -286 0
-255 -287 0
-255 -288 0
-255 -289 0
-256 -257 0
-256 -258 0
-256 -259 0
-256 -260 0
-256 -261 0
-256 -262 0
-256 -263 0
-256 -264 0
-256 -265 0
-256 -266 0
-256 -267 0
-256 -268 0
-256 -269 0
-256 -270 0
-256 -271 0
-256 -272 0
-256 -273 0
-256 -274 0
-256 -275 0
-256 -276 0
-256 -277 0
-256 -278 0
-256 -279 0
-256 -280 0
-256 -281 0
-256 -282 0
-256 -283 0
-256 -284 0
-256 -285 0
-256 -286 0
-256 -287 0
-256 -288 0
-256 -289 0
-257 -258 0
-257 -259 0
-257 -260 0
-257 -261 0
-257 -262 0
-257 -263 0
-257 -264 0
-257 -265 0
-257 -266 0
-257 -267 0
-257 -268 0
-257 -269 0
-257 -270 0
-257 -271 0
-257 -272 0
-257 -273 0
-257 -274 0
-257 -275 0
-257 -276 0
-257 -277 0
-257 -278 0
-257 -279 0
-257 -280 0
-257 -281 0
-257 -282 0
-257 -283 0
-257 -284 0
-257 -285 0
-257 -286 0
-257 -287 0
-257 -288 0
-257 -289 0
-258 -259 0
-258 -260 0
-258 -261 0
-258 -262 0
-258 -263 0
-258 -264 0
-258 -265 0
-258 -266 0
-258 -267 0
-258 -268 0
-258 -269 0
-258 -270 0
-258 -271 0
-258 -272 0
-258 -273 0
-258 -274 0
-258 -275 0
-258 -276 0
-258 -277 0
-258 -278 0
-258 -279 0
-258 -280 0
-258 -281 0
-258 -282 0
-258 -283 0
-258 -284 0
-258 -285 0
-258 -286 0
-258 -287 0
-258 -288 0
-258 -289 0
-259 -260 0
-259 -261 0
-259 -262 0
-259 -263 0
-259 -264 0
-259 -265 0
-259 -266 0
-259 -267 0
-259 -268 0
-259 -269 0
-259 -270 0
-259 -271 0
-259 -272 0
-259 -273 0
-259 -274 0
-259 -275 0
-259 -276 0
-259 -277 0
-259 -278 0
-259 -279 0
-259 -280 0
-259 -281 0
-259 -282 0
-259 -283 0
-259 -284 0
-259 -285 0
-259 -286 0
-259 -287 0
-259 -288 0
-259 -289 0
-260 -261 0
-260 -262 0
-260 -263 0
-260 -264 0
-260 -265 0
-260 -266 0
-260 -267 0
-260 -268 0
-260 -269 0
-260 -270 0
-260 -271 0
-260 -272 0
-260 -273 0
-260 -274 0
-260 -275 0
-260 -276 0
-260 -277 0
-260 -278 0
-260 -279 0
-260 -280 0
-260 -281 0
-260 -282 0
-260 -283 0
-260 -284 0
-260 -285 0
-260 -286 0
-260 -287 0
-260 -288 0
-260 -289 0
-261 -262 0
-261 -263 0
-261 -264 0
-261 -265 0
-261 -266 0
-261 -267 0
-261 -268 0
-261 -269 0
-261 -270 0
-261 -271 0
-261 -272 0
-261 -273 0
-261 -274 0
-261 -275 0
-261 -276 0
-261 -277 0
-261 -278 0
-261 -279 0
-261 -280 0
-261 -281 0
-261 -282 0
-261 -283 0
-261 -284 0
-261 -285 0
-261 -286 0
-261 -287 0
-261 -288 0
-261 -289 0
-262 -263 0
-262 -264 0
-262 -265 0
-262 -266 0
-262 -267 0
-262 -268 0
-262 -269 0
-262 -270 0
-262 -271 0
-262 -272 0
-262 -273 0
-262 -274 0
-262 -275 0
-262 -276 0
-262 -277 0
-262 -278 0
-262 -279 0
-262 -280 0
-262 -281 0
-262 -282 0
-262 -283 0
-262 -284 0
-262 -285 0
-262 -286 0
-262 -287 0
-262 -288 0
-262 -289 0
-263 -264 0
-263 -265 0
-263 -266 0
-263 -267 0
-263 -268 0
-263 -269 0
-263 -270 0
-263 -271 0
-263 -272 0
-263 -273 0
-263 -274 0
-263 -275 0
-263 -276 0
-263 -277 0
-263 -278 0
-263 -279 0
-263 -280 0
-263 -281 0
-263 -282 0
-263 -283 0
-263 -284 0
-263 -285 0
-263 -286 0
-263 -287 0
-263 -288 0
-263 -289 0
-264 -265 0
-264 -266 0
-264 -267 0
-264 -268 0
-264 -269 0
-264 -270 0
-264 -271 0
-264 -272 0
-264 -273 0
-264 -274 0
-264 -275 0
-264 -276 0
-264 -277 0
-264 -278 0
-264 -279 0
-264 -280 0
-264 -281 0
-264 -282 0
-264 -283 0
-264 -284 0
-264 -285 0
-264 -286 0
-264 -287 0
-264 -288 0
-264 -289 0
-265 -266 0
-265 -267 0
-265 -268 0
-265 -269 0
-265 -270 0
-265 -271 0
-265 -272 0
-265 -273 0
-265 -274 0
-265 -275 0
-265 -276 0
-265 -277 0
-265 -278 0
-265 -279 0
-265 -280 0
-265 -281 0
-265 -282 0
-265 -283 0
-265 -284 0
-265 -285 0
-265 -286 0
-265 -287 0
-265 -288 0
-265 -289 0
-266 -267 0
-266 -268 0
-266 -269 0
-266 -270 0
-266 -271 0
-266 -272 0
-266 -273 0
-266 -274 0
-266 -275 0
-266 -276 0
-266 -277 0
-266 -278 0
-266 -279 0
-266 -280 0
-266 -281 0
-266 -282 0
-266 -283 0
-266 -284 0
-266 -285 0
-266 -286 0
-266 -287 0
-266 -288 0
-266 -289 0
-267 -268 0
-267 -269 0
-267 -270 0
-267 -271 0
-267 -272 0
-267 -273 0
-267 -274 0
-267 -275 0
-267 -276 0
-267 -277 0
-267 -278 0
-267 -279 0
-267 -280 0
-267 -281 0
-267 -282 0
-267 -283 0
-267 -284 0
-267 -285 0
-267 -286 0
-267 -287 0
-267 -288 0
-267 -289 0
-268 -269 0
-268 -270 0
-268 -271 0
-268 -272 0
-268 -273 0
-268 -274 0
-268 -275 0
-268 -276 0
-268 -277 0
-268 -278 0
-268 -279 0
-268 -280 0
-268 -281 0
-268 -282 0
-268 -283 0
-268 -284 0
-268 -285 0
-268 -286 0
-268 -287 0
-268 -288 0
-268 -289 0
-269 -270 0
-269 -271 0
-269 -272 0
-269 -273 0
-269 -274 0
-269 -275 0
-269 -276 0
-269 -277 0
-269 -278 0
-269 -279 0
-269 -280 0
-269 -281 0
-269 -282 0
-269 -283 0
-269 -284 0
-269 -285 0
-269 -286 0
-269 -287 0
-269 -288 0
-269 -289 0
-270 -271 0
-270 -272 0
-270 -273 0
-270 -274 0
-270 -275 0
-270 -276 0
-270 -277 0
-270 -278 0
-270 -279 0
-270 -280 0
-270 -281 0
-270 -282 0
-270 -283 0
-270 -284 0
-270 -285 0
-270 -286 0
-270 -287 0
-270 -288 0
-270 -289 0
-271 -272 0
-271 -273 0
-271 -274 0
-271 -275 0
-271 -276 0
-271 -277 0
-271 -278 0
-271 -279 0
-271 -280 0
-271 -281 0
-271 -282 0
-271 -283 0
-271 -284 0
-271 -285 0
-271 -286 0
-271 -287 0
-271 -288 0
-271 -289 0
-272 -273 0
-272 -274 0
-272 -275 0
-272 -276 0
-272 -277 0
-272 -278 0
-272 -279 0
-272 -280 0
-272 -281 0
-272 -282 0
-272 -283 0
-272 -284 0
-272 -285 0
-272 -286 0
-272 -287 0
-272 -288 0
-272 -289 0
-273 -274 0
-273 -275 0
-273 -276 0
-273 -277 0
-273 -278 0
-273 -279 0
-273 -280 0
-273 -281 0
-273 -282 0
-273 -283 0
-273 -284 0
-273 -285 0
-273 -286 0
-273 -287 0
-273 -288 0
-273 -289 0
-274 -275 0
-274 -276 0
-274 -277 0
-274 -278 0
-274 -279 0
-274 -280 0
-274 -281 0
-274 -282 0
-274 -283 0
-274 -284 0
-274 -285 0
-274 -286 0
-274 -287 0
-274 -288 0
-274 -289 0
-275 -276 0
-275 -277 0
-275 -278 0
-275 -279 0
-275 -280 0
-275 -281 0
-275 -282 0
-275 -283 0
-275 -284 0
-275 -285 0
-275 -286 0
-275 -287 0
-275 -288 0
-275 -289 0
-276 -277 0
-276 -278 0
-276 -279 0
-276 -280 0
-276 -281 0
-276 -282 0
-276 -283 0
-276 -284 0
-276 -285 0
-276 -286 0
-276 -287 0
-276 -288 0
-276 -289 0
-277 -278 0
-277 -279 0
-277 -280 0
-277 -281 0
-277 -282 0
-277 -283 0
-277 -284 0
-277 -285 0
-277 -286 0
-277 -287 0
-277 -288 0
-277 -289 0
-278 -279 0
-278 -280 0
-278 -281 0
-278 -282 0
-278 -283 0
-278 -284 0
-278 -285 0
-278 -286 0
-278 -287 0
-278 -288 0
-278 -289 0
-279 -280 0
-279 -281 0
-279 -282 0
-279 -283 0
-279 -284 0
-279 -285 0
-279 -286 0
-279 -287 0
-279 -288 0
-279 -289 0
-280 -281 0
-280 -282 0
-280 -283 0
-280 -284 0
-280 -285 0
-280 -286 0
-280 -287 0
-280 -288 0
-280 -289 0
-281 -282 0
-281 -283 0
-281 -284 0
-281 -285 0
-281 -286 0
-281 -287 0
-281 -288 0
-281 -289 0
-282 -283 0
-282 -284 0
-282 -285 0
-282 -286 0
-282 -287 0
-282 -288 0
-282 -289 0
-283 -284 0
-283 -285 0
-283 -286 0
-283 -287 0
-283 -288 0
-283 -289 0
-284 -285 0
-284 -286 0
-284 -287 0
-284 -288 0
-284 -289 0
-285 -286 0
-285 -287 0
-285 -288 0
-285 -289 0
-286 -287 0
-286 -288 0
-286 -289 0
-287 -288 0
-287 -289 0
-288 -289 0
290 291 292 293 294 295 296 297 298 299 300 301 302 303 304 305 306 307 308 309 310 311 312 313 314 315 316 317 318 319 320 321 322 323 324 325 326 327 328 329 330 331 332 333 334 335 336 337 338 339 340 341 342 343 344 345 346 347 348 349 350 351 352 353 354 355 356 357 358 359 360 361 362 363 364 365 366 367 368 369 370 371 372 373 0
-290 -291 0
-290 -292 0
-290 -293 0
-290 -294 0
-290 -295 0
-290 -296 0
-290 -297 0
-290 -298 0
-290 -299 0
-290 -300 0
-290 -301 0
-290 -302 0
-290 -303 0
-290 -304 0
-290 -305 0
-290 -306 0
-290 -307 0
-290 -308 0
-290 -309 0
-290 -310 0
-290 -311 0
-290 -312 0
-290 -313 0
-290 -314 0
-290 -315 0
-290 -316 0
-290 -317 0
-290 -318 0
-290 -319 0
-290 -320 0
-290 -321 0
-290 -322 0
-290 -323 0
-290 -324 0
-290 -325 0
-290 -326 0
-290 -327 0
-290 -328 0
-290 -329 0
-290 -330 0
-290 -331 0
-290 -332 0
-290 -333 0
-290 -334 0
-290 -335 0
-290 -336 0
-290 -337 0
-290 -338 0
-290 -339 0
-290 -340 0
-290 -341 0
-290 -342 0
-290 -343 0
-290 -344 0
-290 -345 0
-290 -346 0
-290 -347 0
-290 -348 0
-290 -349 0
-290 -350 0
-290 -351 0
-290 -352 0
-290 -353 0
-290 -354 0
-290 -355 0
-290 -356 0
-290 -357 0
-290 -358 0
-290 -359 0
-290 -360 0
-290 -361 0
-290 -362 0
-290 -363 0
-290 -364 0
-290 -365 0
-290 -366 0
-290 -367 0
-290 -368 0
-290 -369 0
-290 -370 0
-290 -371 0
-290 -372 0
-290 -373 0
-291 -292 0
-291 -293 0
-291 -294 0
-291 -295 0
-291 -296 0
-291 -297 0
-291 -298 0
-291 -299 0
-291 -300 0
-291 -301 0
-291 -302 0
-291 -303 0
-291 -304 0
-291 -305 0
-291 -306 0
-291 -307 0
-291 -308 0
-291 -309 0
-291 -310 0
-291 -311 0
-291 -312 0
-291 -313 0
-291 -314 0
-291 -315 0
-291 -316 0
-291 -317 0
-291 -318 0
-291 -319 0
-291 -320 0
-291 -321 0
-291 -322 0
-291 -323 0
-291 -324 0
-291 -325 0
-291 -326 0
-291 -327 0
-291 -328 0
-291 -329 0
-291 -330 0
-291 -331 0
-291 -332 0
-291 -333 0
-291 -334 0
-291 -335 0
-291 -336 0
-291 -337 0
-291 -338 0
-291 -339 0
-291 -340 0
-291 -341 0
-291 -342 0
-291 -343 0
-291 -344 0
-291 -345 0
-291 -346 0
-291 -347 0
-291 -348 0
-291 -349 0
-291 -350 0
-291 -351 0
-291 -352 0
-291 -353 0
-291 -354 0
-291 -355 0
-291 -356 0
-291 -357 0
-291 -358 0
-291 -359 0
-291 -360 0
-291 -361 0
-291 -362 0
-291 -363 0
-291 -364 0
-291 -365 0
-291 -366 0
-291 -367 0
-291 -368 0
-291 -369 0
-291 -370 0
-291 -371 0
-291 -372 0
-291 -373 0
-292 -293 0
-292 -294 0
-292 -295 0
-292 -296 0
-292 -297 0
-292 -298 0
-292 -299 0
-292 -300 0
-292 -301 0
-292 -302 0
-292 -303 0
-292 -304 0
-292 -305 0
-292 -306 0
-292 -307 0
-292 -308 0
-292 -309 0
-292 -310 0
-292 -311 0
-292 -312 0
-292 -313 0
-292 -314 0
-292 -315 0
-292 -316 0
-292 -317 0
-292 -318 0
-292 -319 0
-292 -320 0
-292 -321 0
-292 -322 0
-292 -323 0
-292 -324 0
-292 -325 0
-292 -326 0
-292 -327 0
-292 -328 0
-292 -329 0
-292 -330 0
-292 -331 0
-292 -332 0
-292 -333 0
-292 -334 0
-292 -335 0
-292 -336 0
-292 -337 0
-292 -338 0
-292 -339 0
-292 -340 0
-292 -341 0
-292 -342 0
-292 -343 0
-292 -344 0
-292 -345 0
-292 -346 0
-292 -347 0
-292 -348 0
-292 -349 0
-292 -350 0
-292 -351 0
-292 -352 0
-292 -353 0
-292 -354 0
-292 -355 0
-292 -356 0
-292 -357 0
-292 -358 0
-292 -359 0
-292 -360 0
-292 -361 0
-292 -362 0
-292 -363 0
-292 -364 0
-292 -365 0
-292 -366 0
-292 -367 0
-292 -368 0
-292 -369 0
-292 -370 0
-292 -371 0
-292 -372 0
-292 -373 0
-293 -294 0
-293 -295 0
-293 -296 0
-293 -297 0
-293 -298 0
-293 -299 0
-293 -300 0
-293 -301 0
-293 -302 0
-293 -303 0
-293 -304 0
-293 -305 0
-293 -306 0
-293 -307 0
-293 -308 0
-293 -309 0
-293 -310 0
-293 -311 0
-293 -312 0
-293 -313 0
-293 -314 0
-293 -315 0
-293 -316 0
-293 -317 0
-293 -318 0
-293 -319 0
-293 -320 0
-293 -321 0
-293 -322 0
-293 -323 0
-293 -324 0
-293 -325 0
-293 -326 0
-293 -327 0
-293 -328 0
-293 -329 0
-293 -330 0
-293 -331 0
-293 -332 0
-293 -333 0
-293 -334 0
-293 -335 0
-293 -336 0
-293 -337 0
-293 -338 0
-293 -339 0
-293 -340 0
-293 -341 0
-293 -342 0
-293 -343 0
-293 -344 0
-293 -345 0
-293 -346 0
-293 -347 0
-293 -348 0
-293 -349 0
-293 -350 0
-293 -351 0
-293 -352 0
-293 -353 0
-293 -354 0
-293 -355 0
-293 -356 0
-293 -357 0
-293 -358 0
-293 -359 0
-293 -360 0
-293 -361 0
-293 -362 0
-293 -363 0
-293 -364 0
-293 -365 0
-293 -366 0
-293 -367 0
-293 -368 0
-293 -369 0
-293 -370 0
-293 -371 0
-293 -372 0
-293 -373 0
-294 -295 0
-294 -296 0
-294 -297 0
-294 -298 0
-294 -299 0
-294 -300 0
-294 -301 0
-294 -302 0
-294 -303 0
-294 -304 0
-294 -305 0
-294 -306 0
-294 -307 0
-294 -308 0
-294 -309 0
-294 -310 0
-294 -311 0
-294 -312 0
-294 -313 0
-294 -314 0
-294 -315 0
-294 -316 0
-294 -317 0
-294 -318 0
-294 -319 0
-294 -320 0
-294 -321 0
-294 -322 0
-294 -323 0
-294 -324 0
-294 -325 0
-294 -326 0
-294 -327 0
-294 -328 0
-294 -329 0
-294 -330 0
-294 -331 0
-294 -332 0
-294 -333 0
-294 -334 0
-294 -335 0
-294 -336 0
-294 -337 0
-294 -338 0
-294 -339 0
-294 -340 0
-294 -341 0
-294 -342 0
-294 -343 0
-294 -344 0
-294 -345 0
-294 -346 0
-294 -347 0
-294 -348 0
-294 -349 0
-294 -350 0
-294 -351 0
-294 -352 0
-294 -353 0
-294 -354 0
-294 -355 0
-294 -356 0
-294 -357 0
-294 -358 0
-294 -359 0
-294 -360 0
-294 -361 0
-294 -362 0
-294 -363 0
-294 -364 0
-294 -365 0
-294 -366 0
-294 -367 0
-294 -368 0
-294 -369 0
-294 -370 0
-294 -371 0
-294 -372 0
-294 -373 0
-295 -296 0
-295 -297 0
-295 -298 0
-295 -299 0
-295 -300 0
-295 -301 0
-295 -302 0
-295 -303 0
-295 -304 0
-295 -305 0
-295 -306 0
-295 -307 0
-295 -308 0
-295 -309 0
-295 -310 0
-295 -311 0
-295 -312 0
-295 -313 0
-295 -314 0
-295 -315 0
-295 -316 0
-295 -317 0
-295 -318 0
-295 -319 0
-295 -320 0
-295 -321 0
-295 -322 0
-295 -323 0
-295 -324 0
-295 -325 0
-295 -326 0
-295 -327 0
-295 -328 0
-295 -329 0
-295 -330 0
-295 -331 0
-295 -332 0
-295 -333 0
-295 -334 0
-295 -335 0
-295 -336 0
-295 -337 0
-295 -338 0
-295 -339 0
-295 -340 0
-295 -341 0
-295 -342 0
-295 -343 0
-295 -344 0
-295 -345 0
-295 -346 0
-295 -347 0
-295 -348 0
-295 -349 0
-295 -350 0
-295 -351 0
-295 -352 0
-295 -353 0
-295 -354 0
-295 -355 0
-295 -356 0
-295 -357 0
-295 -358 0
-295 -359 0
-295 -360 0
-295 -361 0
-295 -362 0
-295 -363 0
-295 -364 0
-295 -365 0
-295 -366 0
-295 -367 0
-295 -368 0
-295 -369 0
-295 -370 0
-295 -371 0
-295 -372 0
-295 -373 0
-296 -297 0
-296 -298 0
-296 -299 0
-296 -300 0
-296 -301 0
-296 -302 0
-296 -303 0
-296 -304 0
-296 -305 0
-296 -306 0
-296 -307 0
-296 -308 0
-296 -309 0
-296 -310 0
-296 -311 0
-296 -312 0
-296 -313 0
-296 -314 0
-296 -315 0
-296 -316 0
-296 -317 0
-296 -318 0
-296 -319 0
-296 -320 0
-296 -321 0
-296 -322 0
-296 -323 0
-296 -324 0
-296 -325 0
-296 -326 0
-296 -327 0
-296 -328 0
-296 -329 0
-296 -330 0
-296 -331 0
-296 -332 0
-296 -333 0
-296 -334 0
-296 -335 0
-296 -336 0
-296 -337 0
-296 -338 0
-296 -339 0
-296 -340 0
-296 -341 0
-296 -342 0
-296 -343 0
-296 -344 0
-296 -345 0
-296 -346 0
-296 -347 0
-296 -348 0
-296 -349 0
-296 -350 0
-296 -351 0
-296 -352 0
-296 -353 0
-296 -354 0
-296 -355 0
-296 -356 0
-296 -357 0
-296 -358 0
-296 -359 0
-296 -360 0
-296 -361 0
-296 -362 0
-296 -363 0
-296 -364 0
-296 -365 0
-296 -366 0
-296 -367 0
-296 -368 0
-296 -369 0
-296 -370 0
-296 -371 0
-296 -372 0
-296 -373 0
-297 -298 0
-297 -299 0
-297 -300 0
-297 -301 0
-297 -302 0
-297 -303 0
-297 -304 0
-297 -305 0
-297 -306 0
-297 -307 0
-297 -308 0
-297 -309 0
-297 -310 0
-297 -311 0
-297 -312 0
-297 -313 0
-297 -314 0
-297 -315 0
-297 -316 0
-297 -317 0
-297 -318 0
-297 -319 0
-297 -320 0
-297 -321 0
-297 -322 0
-297 -323 0
-297 -324 0
-297 -325 0
-297 -326 0
-297 -327 0
-297 -328 0
-297 -329 0
-297 -330 0
-297 -331 0
-297 -332 0
-297 -333 0
-297 -334 0
-297 -335 0
-297 -336 0
-297 -337 0
-297 -338 0
-297 -339 0
-297 -340 0
-297 -341 0
-297 -342 0
-297 -343 0
-297 -344 0
-297 -345 0
-297 -346 0
-297 -347 0
-297 -348 0
-297 -349 0
-297 -350 0
-297 -351 0
-297 -352 0
-297 -353 0
-297 -354 0
-297 -355 0
-297 -356 0
-297 -357 0
-297 -358 0
-297 -359 0
-297 -360 0
-297 -361 0
-297 -362 0
-297 -363 0
-297 -364 0
-297 -365 0
-297 -366 0
-297 -367 0
-297 -368 0
-297 -369 0
-297 -370 0
-297 -371 0
-297 -372 0
-297 -373 0
-298 -299 0
-298 -300 0
-298 -301 0
-298 -302 0
-298 -303 0
-298 -304 0
-298 -305 0
-298 -306 0
-298 -307 0
-298 -308 0
-298 -309 0
-298 -310 0
-298 -311 0
-298 -312 0
-298 -313 0
-298 -314 0
-298 -315 0
-298 -316 0
-298 -317 0
-298 -318 0
-298 -319 0
-298 -320 0
-298 -321 0
-298 -322 0
-298 -323 0
-298 -324 0
-298 -325 0
-298 -326 0
-298 -327 0
-298 -328 0
-298 -329 0
-298 -330 0
-298 -331 0
-298 -332 0
-298 -333 0
-298 -334 0
-298 -335 0
-298 -336 0
-298 -337 0
-298 -338 0
-298 -339 0
-298 -340 0
-298 -341 0
-298 -342 0
-298 -343 0
-298 -344 0
-298 -345 0
-298 -346 0
-298 -347 0
-298 -348 0
-298 -349 0
-298 -350 0
-298 -351 0
-298 -352 0
-298 -353 0
-298 -354 0
-298 -355 0
-298 -356 0
-298 -357 0
-298 -358 0
-298 -359 0
-298 -360 0
-298 -361 0
-298 -362 0
-298 -363 0
-298 -364 0
-298 -365 0
-298 -366 0
-298 -367 0
-298 -368 0
-298 -369 0
-298 -370 0
-298 -371 0
-298 -372 0
-298 -373 0
-299 -300 0
-299 -301 0
-299 -302 0
-299 -303 0
-299 -304 0
-299 -305 0
-299 -306 0
-299 -307 0
-299 -308 0
-299 -309 0
-299 -310 0
-299 -311 0
-299 -312 0
-299 -313 0
-299 -314 0
-299 -315 0
-299 -316 0
-299 -317 0
-299 -318 0
-299 -319 0
-299 -320 0
-299 -321 0
-299 -322 0
-299 -323 0
-299 -324 0
-299 -325 0
-299 -326 0
-299 -327 0
-299 -328 0
-299 -329 0
-299 -330 0
-299 -331 0
-299 -332 0
-299 -333 0
-299 -334 0
-299 -335 0
-299 -336 0
-299 -337 0
-299 -338 0
-299 -339 0
-299 -340 0
-299 -341 0
-299 -342 0
-299 -343 0
-299 -344 0
-299 -345 0
-299 -346 0
-299 -347 0
-299 -348 0
-299 -349 0
-299 -350 0
-299 -351 0
-299 -352 0
-299 -353 0
-299 -354 0
-299 -355 0
-299 -356 0
-299 -357 0
-299 -358 0
-299 -359 0
-299 -360 0
-299 -361 0
-299 -362 0
-299 -363 0
-299 -364 0
-299 -365 0
-299 -366 0
-299 -367 0
-299 -368 0
-299 -369 0
-299 -370 0
-299 -371 0
-299 -372 0
-299 -373 0
-300 -301 0
-300 -302 0
-300 -303 0
-300 -304 0
-300 -305 0
-300 -306 0
-300 -307 0
-300 -308 0
-300 -309 0
-300 -310 0
-300 -311 0
-300 -312 0
-300 -313 0
-300 -314 0
-300 -315 0
-300 -316 0
-300 -317 0
-300 -318 0
-300 -319 0
-300 -320 0
-300 -321 0
-300 -322 0
-300 -323 0
-300 -324 0
-300 -325 0
-300 -326 0
-300 -327 0
-300 -328 0
-300 -329 0
-300 -330 0
-300 -331 0
-300 -332 0
-300 -333 0
-300 -334 0
-300 -335 0
-300 -336 0
-300 -337 0
-300 -338 0
-300 -339 0
-300 -340 0
-300 -341 0
-300 -342 0
-300 -343 0
-300 -344 0
-300 -345 0
-300 -346 0
-300 -347 0
-300 -348 0
-300 -349 0
-300 -350 0
-300 -351 0
-300 -352 0
-300 -353 0
-300 -354 0
-300 -355 0
-300 -356 0
-300 -357 0
-300 -358 0
-300 -359 0
-300 -360 0
-300 -361 0
-300 -362 0
-300 -363 0
-300 -364 0
-300 -365 0
-300 -366 0
-300 -367 0
-300 -368 0
-300 -369 0
-300 -370 0
-300 -371 0
-300 -372 0
-300 -373 0
-301 -302 0
-301 -303 0
-301 -304 0
-301 -305 0
-301 -306 0
-301 -307 0
-301 -308 0
-301 -309 0
-301 -310 0
-301 -311 0
-301 -312 0
-301 -313 0
-301 -314 0
-301 -315 0
-301 -316 0
-301 -317 0
-301 -318 0
-301 -319 0
-301 -320 0
-301 -321 0
-301 -322 0
-301 -323 0
-301 -324 0
-301 -325 0
-301 -326 0
-301 -327 0
-301 -328 0
-301 -329 0
-301 -330 0
-301 -331 0
-301 -332 0
-301 -333 0
-301 -334 0
-301 -335 0
-301 -336 0
-301 -337 0
-301 -338 0
-301 -339 0
-301 -340 0
-301 -341 0
-301 -342 0
-301 -343 0
-301 -344 0
-301 -345 0
-301 -346 0
-301 -347 0
-301 -348 0
-301 -349 0
-301 -350 0
-301 -351 0
-301 -352 0
-301 -353 0
-301 -354 0
-301 -355 0
-301 -356 0
-301 -357 0
-301 -358 0
-301 -359 0
-301 -360 0
-301 -361 0
-301 -362 0
-301 -363 0
-301 -364 0
-301 -365 0
-301 -366 0
-301 -367 0
-301 -368 0
-301 -369 0
-301 -370 0
-301 -371 0
-301 -372 0
-301 -373 0
-302 -303 0
-302 -304 0
-302 -305 0
-302 -306 0
-302 -307 0
-302 -308 0
-302 -309 0
-302 -310 0
-302 -311 0
-302 -312 0
-302 -313 0
-302 -314 0
-302 -315 0
-302 -316 0
-302 -317 0
-302 -318 0
-302 -319 0
-302 -320 0
-302 -321 0
-302 -322 0
-302 -323 0
-302 -324 0
-302 -325 0
-302 -326 0
-302 -327 0
-302 -328 0
-302 -329 0
-302 -330 0
-302 -331 0
-302 -332 0
-302 -333 0
-302 -334 0
-302 -335 0
-302 -336 0
-302 -337 0
-302 -338 0
-302 -339 0
-302 -340 0
-302 -341 0
-302 -342 0
-302 -343 0
-302 -344 0
-302 -345 0
-302 -346 0
-302 -347 0
-302 -348 0
-302 -349 0
-302 -350 0
-302 -351 0
-302 -352 0
-302 -353 0
-302 -354 0
-302 -355 0
-302 -356 0
-302 -357 0
-302 -358 0
-302 -359 0
-302 -360 0
-302 -361 0
-302 -362 0
-302 -363 0
-302 -364 0
-302 -365 0
-302 -366 0
-302 -367 0
-302 -368 0
-302 -369 0
-302 -370 0
-302 -371 0
-302 -372 0
-302 -373 0
-303 -304 0
-303 -305 0
-303 -306 0
-303 -307 0
-303 -308 0
-303 -309 0
-303 -310 0
-303 -311 0
-303 -312 0
-303 -313 0
-303 -314 0
-303 -315 0
-303 -316 0
-303 -317 0
-303 -318 0
-303 -319 0
-303 -320 0
-303 -321 0
-303 -322 0
-303 -323 0
-303 -324 0
-303 -325 0
-303 -326 0
-303 -327 0
-303 -328 0
-303 -329 0
-303 -330 0
-303 -331 0
-303 -332 0
-303 -333 0
-303 -334 0
-303 -335 0
-303 -336 0
-303 -337 0
-303 -338 0
-303 -339 0
-303 -340 0
-303 -341 0
-303 -342 0
-303 -343 0
-303 -344 0
-303 -345 0
-303 -346 0
-303 -347 0
-303 -348 0
-303 -349 0
-303 -350 0
-303 -351 0
-303 -352 0
-303 -353 0
-303 -354 0
-303 -355 0
-303 -356 0
-303 -357 0
-303 -358 0
-303 -359 0
-303 -360 0
-303 -361 0
-303 -362 0
-303 -363 0
-303 -364 0
-303 -365 0
-303 -366 0
-303 -367 0
-303 -368 0
-303 -369 0
-303 -370 0
-303 -371 0
-303 -372 0
-303 -373 0
-304 -305 0
-304 -306 0
-304 -307 0
-304 -308 0
-304 -309 0
-304 -310 0
-304 -311 0
-304 -312 0
-304 -313 0
-304 -314 0
-304 -315 0
-304 -316 0
-304 -317 0
-304 -318 0
-304 -319 0
-304 -320 0
-304 -321 0
-304 -322 0
-304 -323 0
-304 -324 0
-304 -325 0
-304 -326 0
-304 -327 0
-304 -328 0
-304 -329 0
-304 -330 0
-304 -331 0
-304 -332 0
-304 -333 0
-304 -334 0
-304 -335 0
-304 -336 0
-304 -337 0
-304 -338 0
-304 -339 0
-304 -340 0
-304 -341 0
-304 -342 0
-304 -343 0
-304 -344 0
-304 -345 0
-304 -346 0
-304 -347 0
-304 -348 0
-304 -349 0
-304 -350 0
-304 -351 0
-304 -352 0
-304 -353 0
-304 -354 0
-304 -355 0
-304 -356 0
-304 -357 0
-304 -358 0
-304 -359 0
-304 -360 0
-304 -361 0
-304 -362 0
-304 -363 0
-304 -364 0
-304 -365 0
-304 -366 0
-304 -367 0
-304 -368 0
-304 -369 0
-304 -370 0
-304 -371 0
-304 -372 0
-304 -373 0
-305 -306 0
-305 -307 0
-305 -308 0
-305 -309 0
-305 -310 0
-305 -311 0
-305 -312 0
-305 -313 0
-305 -314 0
-305 -315 0
-305 -316 0
-305 -317 0
-305 -318 0
-305 -319 0
-305 -320 0
-305 -321 0
-305 -322 0
-305 -323 0
-305 -324 0
-305 -325 0
-305 -326 0
-305 -327 0
-305 -328 0
-305 -329 0
-305 -330 0
-305 -331 0
-305 -332 0
-305 -333 0
-305 -334 0
-305 -335 0
-305 -336 0
-305 -337 0
-305 -338 0
-305 -339 0
-305 -340 0
-305 -341 0
-305 -342 0
-305 -343 0
-305 -344 0
-305 -345 0
-305 -346 0
-305 -347 0
-305 -348 0
-305 -349 0
-305 -350 0
-305 -351 0
-305 -352 0
-305 -353 0
-305 -354 0
-305 -355 0
-305 -356 0
-305 -357 0
-305 -358 0
-305 -359 0
-305 -360 0
-305 -361 0
-305 -362 0
-305 -363 0
-305 -364 0
-305 -365 0
-305 -366 0
-305 -367 0
-305 -368 0
-305 -369 0
-305 -370 0
-305 -371 0
-305 -372 0
-305 -373 0
-306 -307 0
-306 -308 0
-306 -309 0
-306 -310 0
-306 -311 0
-306 -312 0
-306 -313 0
-306 -314 0
-306 -315 0
-306 -316 0
-306 -317 0
-306 -318 0
-306 -319 0
-306 -320 0
-306 -321 0
-306 -322 0
-306 -323 0
-306 -324 0
-306 -325 0
-306 -326 0
-306 -327 0
-306 -328 0
-306 -329 0
-306 -330 0
-306 -331 0
-306 -332 0
-306 -333 0
-306 -334 0
-306 -335 0
-306 -336 0
-306 -337 0
-306 -338 0
-306 -339 0
-306 -340 0
-306 -341 0
-306 -342 0
-306 -343 0
-306 -344 0
-306 -345 0
-306 -346 0
-306 -347 0
-306 -348 0
-306 -349 0
-306 -350 0
-306 -351 0
-306 -352 0
-306 -353 0
-306 -354 0
-306 -355 0
-306 -356 0
-306 -357 0
-306 -358 0
-306 -359 0
-306 -360 0
-306 -361 0
-306 -362 0
-306 -363 0
-306 -364 0
-306 -365 0
-306 -366 0
-306 -367 0
-306 -368 0
-306 -369 0
-306 -370 0
-306 -371 0
-306 -372 0
-306 -373 0
-307 -308 0
-307 -309 0
-307 -310 0
-307 -311 0
-307 -312 0
-307 -313 0
-307 -314 0
-307 -315 0
-307 -316 0
-307 -317 0
-307 -318 0
-307 -319 0
-307 -320 0
-307 -321 0
-307 -322 0
-307 -323 0
-307 -324 0
-307 -325 0
-307 -326 0
-307 -327 0
-307 -328 0
-307 -329 0
-307 -330 0
-307 -331 0
-307 -332 0
-307 -333 0
-307 -334 0
-307 -335 0
-307 -336 0
-307 -337 0
-307 -338 0
-307 -339 0
-307 -340 0
-307 -341 0
-307 -342 0
-307 -343 0
-307 -344 0
-307 -345 0
-307 -346 0
-307 -347 0
-307 -348 0
-307 -349 0
-307 -350 0
-307 -351 0
-307 -352 0
-307 -353 0
-307 -354 0
-307 -355 0
-307 -356 0
-307 -357 0
-307 -358 0
-307 -359 0
-307 -360 0
-307 -361 0
-307 -362 0
-307 -363 0
-307 -364 0
-307 -365 0
-307 -366 0
-307 -367 0
-307 -368 0
-307 -369 0
-307 -370 0
-307 -371 0
-307 -372 0
-307 -373 0
-308 -309 0
-308 -310 0
-308 -311 0
-308 -312 0
-308 -313 0
-308 -314 0
-308 -315 0
-308 -316 0
-308 -317 0
-308 -318 0
-308 -319 0
-308 -320 0
-308 -321 0
-308 -322 0
-308 -323 0
-308 -324 0
-308 -325 0
-308 -326 0
-308 -327 0
-308 -328 0
-308 -329 0
-308 -330 0
-308 -331 0
-308 -332 0
-308 -333 0
-308 -334 0
-308 -335 0
-308 -336 0
-308 -337 0
-308 -338 0
-308 -339 0
-308 -340 0
-308 -341 0
-308 -342 0
-308 -343 0
-308 -344 0
-308 -345 0
-308 -346 0
-308 -347 0
-308 -348 0
-308 -349 0
-308 -350 0
-308 -351 0
-308 -352 0
-308 -353 0
-308 -354 0
-308 -355 0
-308 -356 0
-308 -357 0
-308 -358 0
-308 -359 0
-308 -360 0
-308 -361 0
-308 -362 0
-308 -363 0
-308 -364 0
-308 -365 0
-308 -366 0
-308 -367 0
-308 -368 0
-308 -369 0
-308 -370 0
-308 -371 0
-308 -372 0
-308 -373 0
-309 -310 0
-309 -311 0
-309 -312 0
-309 -313 0
-309 -314 0
-309 -315 0
-309 -316 0
-309 -317 0
-309 -318 0
-309 -319 0
-309 -320 0
-309 -321 0
-309 -322 0
-309 -323 0
-309 -324 0
-309 -325 0
-309 -326 0
-309 -327 0
-309 -328 0
-309 -329 0
-309 -330 0
-309 -331 0
-309 -332 0
-309 -333 0
-309 -334 0
-309 -335 0
-309 -336 0
-309 -337 0
-309 -338 0
-309 -339 0
-309 -340 0
-309 -341 0
-309 -342 0
-309 -343 0
-309 -344 0
-309 -345 0
-309 -346 0
-309 -347 0
-309 -348 0
-309 -349 0
-309 -350 0
-309 -351 0
-309 -352 0
-309 -353 0
-309 -354 0
-309 -355 0
-309 -356 0
-309 -357 0
-309 -358 0
-309 -359 0
-309 -360 0
-309 -361 0
-309 -362 0
-309 -363 0
-309 -364 0
-309 -365 0
-309 -366 0
-309 -367 0
-309 -368 0
-309 -369 0
-309 -370 0
-309 -371 0
-309 -372 0
-309 -373 0
-310 -311 0
-310 -312 0
-310 -313 0
-310 -314 0
-310 -315 0
-310 -316 0
-310 -317 0
-310 -318 0
-310 -319 0
-310 -320 0
-310 -321 0
-310 -322 0
-310 -323 0
-310 -324 0
-310 -325 0
-310 -326 0
-310 -327 0
-310 -328 0
-310 -329 0
-310 -330 0
-310 -331 0
-310 -332 0
-310 -333 0
-310 -334 0
-310 -335 0
-310 -336 0
-310 -337 0
-310 -338 0
-310 -339 0
-310 -340 0
-310 -341 0
-310 -342 0
-310 -343 0
-310 -344 0
-310 -345 0
-310 -346 0
-310 -347 0
-310 -348 0
-310 -349 0
-310 -350 0
-310 -351 0
-310 -352 0
-310 -353 0
-310 -354 0
-310 -355 0
-310 -356 0
-310 -357 0
-310 -358 0
-310 -359 0
-310 -360 0
-310 -361 0
-310 -362 0
-310 -363 0
-310 -364 0
-310 -365 0
-310 -366 0
-310 -367 0
-310 -368 0
-310 -369 0
-310 -370 0
-310 -371 0
-310 -372 0
-310 -373 0
-311 -312 0
-311 -313 0
-311 -314 0
-311 -315 0
-311 -316 0
-311 -317 0
-311 -318 0
-311 -319 0
-311 -320 0
-311 -321 0
-311 -322 0
-311 -323 0
-311 -324 0
-311 -325 0
-311 -326 0
-311 -327 0
-311 -328 0
-311 -329 0
-311 -330 0
-311 -331 0
-311 -332 0
-311 -333 0
-311 -334 0
-311 -335 0
-311 -336 0
-311 -337 0
-311 -338 0
-311 -339 0
-311 -340 0
-311 -341 0
-311 -342 0
-311 -343 0
-311 -344 0
-311 -345 0
-311 -346 0
-311 -347 0
-311 -348 0
-311 -349 0
-311 -350 0
-311 -351 0
-311 -352 0
-311 -353 0
-311 -354 0
-311 -355 0
-311 -356 0
-311 -357 0
-311 -358 0
-311 -359 0
-311 -360 0
-311 -361 0
-311 -362 0
-311 -363 0
-311 -364 0
-311 -365 0
-311 -366 0
-311 -367 0
-311 -368 0
-311 -369 0
-311 -370 0
-311 -371 0
-311 -372 0
-311 -373 0
-312 -313 0
-312 -314 0
-312 -315 0
-312 -316 0
-312 -317 0
-312 -318 0
-312 -319 0
-312 -320 0
-312 -321 0
-312 -322 0
-312 -323 0
-312 -324 0
-312 -325 0
-312 -326 0
-312 -327 0
-312 -328 0
-312 -329 0
-312 -330 0
-312 -331 0
-312 -332 0
-312 -333 0
-312 -334 0
-312 -335 0
-312 -336 0
-312 -337 0
-312 -338 0
-312 -339 0
-312 -340 0
-312 -341 0
-312 -342 0
-312 -343 0
-312 -344 0
-312 -345 0
-312 -346 0
-312 -347 0
-312 -348 0
-312 -349 0
-312 -350 0
-312 -351 0
-312 -352 0
-312 -353 0
-312 -354 0
-312 -355 0
-312 -356 0
-312 -357 0
-312 -358 0
-312 -359 0
-312 -360 0
-312 -361 0
-312 -362 0
-312 -363 0
-312 -364 0
-312 -365 0
-312 -366 0
-312 -367 0
-312 -368 0
-312 -369 0
-312 -370 0
-312 -371 0
-312 -372 0
-312 -373 0
-313 -314 0
-313 -315 0
-313 -316 0
-313 -317 0
-313 -318 0
-313 -319 0
-313 -320 0
-313 -321 0
-313 -322 0
-313 -323 0
-313 -324 0
-313 -325 0
-313 -326 0
-313 -327 0
-313 -328 0
-313 -329 0
-313 -330 0
-313 -331 0
-313 -332 0
-313 -333 0
-313 -334 0
-313 -335 0
-313 -336 0
-313 -337 0
-313 -338 0
-313 -339 0
-313 -340 0
-313 -341 0
-313 -342 0
-313 -343 0
-313 -344 0
-313 -345 0
-313 -346 0
-313 -347 0
-313 -348 0
-313 -349 0
-313 -350 0
-313 -351 0
-313 -352 0
-313 -353 0
-313 -354 0
-313 -355 0
-313 -356 0
-313 -357 0
-313 -358 0
-313 -359 0
-313 -360 0
-313 -361 0
-313 -362 0
-313 -363 0
-313 -364 0
-313 -365 0
-313 -366 0
-313 -367 0
-313 -368 0
-313 -369 0
-313 -370 0
-313 -371 0
-313 -372 0
-313 -373 0
-314 -315 0
-314 -316 0
-314 -317 0
-314 -318 0
-314 -319 0
-314 -320 0
-314 -321 0
-314 -322 0
-314 -323 0
-314 -324 0
-314 -325 0
-314 -326 0
-314 -327 0
-314 -328 0
-314 -329 0
-314 -330 0
-314 -331 0
-314 -332 0
-314 -333 0
-314 -334 0
-314 -335 0
-314 -336 0
-314 -337 0
-314 -338 0
-314 -339 0
-314 -340 0
-314 -341 0
-314 -342 0
-314 -343 0
-314 -344 0
-314 -345 0
-314 -346 0
-314 -347 0
-314 -348 0
-314 -349 0
-314 -350 0
-314 -351 0
-314 -352 0
-314 -353 0
-314 -354 0
-314 -355 0
-314 -356 0
-314 -357 0
-314 -358 0
-314 -359 0
-314 -360 0
-314 -361 0
-314 -362 0
-314 -363 0
-314 -364 0
-314 -365 0
-314 -366 0
-314 -367 0
-314 -368 0
-314 -369 0
-314 -370 0
-314 -371 0
-314 -372 0
-314 -373 0
-315 -316 0
-315 -317 0
-315 -318 0
-315 -319 0
-315 -320 0
-315 -321 0
-315 -322 0
-315 -323 0
-315 -324 0
-315 -325 0
-315 -326 0
-315 -327 0
-315 -328 0
-315 -329 0
-315 -330 0
-315 -331 0
-315 -332 0
-315 -333 0
-315 -334 0
-315 -335 0
-315 -336 0
-315 -337 0
-315 -338 0
-315 -339 0
-315 -340 0
-315 -341 0
-315 -342 0
-315 -343 0
-315 -344 0
-315 -345 0
-315 -346 0
-315 -347 0
-315 -348 0
-315 -349 0
-315 -350 0
-315 -351 0
-315 -352 0
-315 -353 0
-315 -354 0
-315 -355 0
-315 -356 0
-315 -357 0
-315 -358 0
-315 -359 0
-315 -360 0
-315 -361 0
-315 -362 0
-315 -363 0
-315 -364 0
-315 -365 0
-315 -366 0
-315 -367 0
-315 -368 0
-315 -369 0
-315 -370 0
-315 -371 0
-315 -372 0
-315 -373 0
-316 -317 0
-316 -318 0
-316 -319 0
-316 -320 0
-316 -321 0
-316 -322 0
-316 -323 0
-316 -324 0
-316 -325 0
-316 -326 0
-316 -327 0
-316 -328 0
-316 -329 0
-316 -330 0
-316 -331 0
-316 -332 0
-316 -333 0
-316 -334 0
-316 -335 0
-316 -336 0
-316 -337 0
-316 -338 0
-316 -339 0
-316 -340 0
-316 -341 0
-316 -342 0
-316 -343 0
-316 -344 0
-316 -345 0
-316 -346 0
-316 -347 0
-316 -348 0
-316 -349 0
-316 -350 0
-316 -351 0
-316 -352 0
-316 -353 0
-316 -354 0
-316 -355 0
-316 -356 0
-316 -357 0
-316 -358 0
-316 -359 0
-316 -360 0
-316 -361 0
-316 -362 0
-316 -363 0
-316 -364 0
-316 -365 0
-316 -366 0
-316 -367 0
-316 -368 0
-316 -369 0
-316 -370 0
-316 -371 0
-316 -372 0
-316 -373 0
-317 -318 0
-317 -319 0
-317 -320 0
-317 -321 0
-317 -322 0
-317 -323 0
-317 -324 0
-317 -325 0
-317 -326 0
-317 -327 0
-317 -328 0
-317 -329 0
-317 -330 0
-317 -331 0
-317 -332 0
-317 -333 0
-317 -334 0
-317 -335 0
-317 -336 0
-317 -337 0
-317 -338 0
-317 -339 0
-317 -340 0
-317 -341 0
-317 -342 0
-317 -343 0
-317 -344 0
-317 -345 0
-317 -346 0
-317 -347 0
-317 -348 0
-317 -349 0
-317 -350 0
-317 -351 0
-317 -352 0
-317 -353 0
-317 -354 0
-317 -355 0
-317 -356 0
-317 -357 0
-317 -358 0
-317 -359 0
-317 -360 0
-317 -361 0
-317 -362 0
-317 -363 0
-317 -364 0
-317 -365 0
-317 -366 0
-317 -367 0
-317 -368 0
-317 -369 0
-317 -370 0
-317 -371 0
-317 -372 0
-317 -373 0
-318 -319 0
-318 -320 0
-318 -321 0
-318 -322 0
-318 -323 0
-318 -324 0
-318 -325 0
-318 -326 0
-318 -327 0
-318 -328 0
-318 -329 0
-318 -330 0
-318 -331 0
-318 -332 0
-318 -333 0
-318 -334 0
-318 -335 0
-318 -336 0
-318 -337 0
-318 -338 0
-318 -339 0
-318 -340 0
-318 -341 0
-318 -342 0
-318 -343 0
-318 -344 0
-318 -345 0
-318 -346 0
-318 -347 0
-318 -348 0
-318 -349 0
-318 -350 0
-318 -351 0
-318 -352 0
-318 -353 0
-318 -354 0
-318 -355 0
-318 -356 0
-318 -357 0
-318 -358 0
-318 -359 0
-318 -360 0
-318 -361 0
-318 -362 0
-318 -363 0
-318 -364 0
-318 -365 0
-318 -366 0
-318 -367 0
-318 -368 0
-318 -369 0
-318 -370 0
-318 -371 0
-318 -372 0
-318 -373 0
-319 -320 0
-319 -321 0
-319 -322 0
-319 -323 0
-319 -324 0
-319 -325 0
-319 -326 0
-319 -327 0
-319 -328 0
-319 -329 0
-319 -330 0
-319 -331 0
-319 -332 0
-319 -333 0
-319 -334 0
-319 -335 0
-319 -336 0
-319 -337 0
-319 -338 0
-319 -339 0
-319 -340 0
-319 -341 0
-319 -342 0
-319 -343 0
-319 -344 0
-319 -345 0
-319 -346 0
-319 -347 0
-319 -348 0
-319 -349 0
-319 -350 0
-319 -351 0
-319 -352 0
-319 -353 0
-319 -354 0
-319 -355 0
-319 -356 0
-319 -357 0
-319 -358 0
-319 -359 0
-319 -360 0
-319 -361 0
-319 -362 0
-319 -363 0
-319 -364 0
-319 -365 0
-319 -366 0
-319 -367 0
-319 -368 0
-319 -369 0
-319 -370 0
-319 -371 0
-319 -372 0
-319 -373 0
-320 -321 0
-320 -322 0
-320 -323 0
-320 -324 0
-320 -325 0
-320 -326 0
-320 -327 0
-320 -328 0
-320 -329 0
-320 -330 0
-320 -331 0
-320 -332 0
-320 -333 0
-320 -334 0
-320 -335 0
-320 -336 0
-320 -337 0
-320 -338 0
-320 -339 0
-320 -340 0
-320 -341 0
-320 -342 0
-320 -343 0
-320 -344 0
-320 -345 0
-320 -346 0
-320 -347 0
-320 -348 0
-320 -349 0
-320 -350 0
-320 -351 0
-320 -352 0
-320 -353 0
-320 -354 0
-320 -355 0
-320 -356 0
-320 -357 0
-320 -358 0
-320 -359 0
-320 -360 0
-320 -361 0
-320 -362 0
-320 -363 0
-320 -364 0
-320 -365 0
-320 -366 0
-320 -367 0
-320 -368 0
-320 -369 0
-320 -370 0
-320 -371 0
-320 -372 0
-320 -373 0
-321 -322 0
-321 -323 0
-321 -324 0
-321 -325 0
-321 -326 0
-321 -327 0
-321 -328 0
-321 -329 0
-321 -330 0
-321 -331 0
-321 -332 0
-321 -333 0
-321 -334 0
-321 -335 0
-321 -336 0
-321 -337 0
-321 -338 0
-321 -339 0
-321 -340 0
-321 -341 0
-321 -342 0
-321 -343 0
-321 -344 0
-321 -345 0
-321 -346 0
-321 -347 0
-321 -348 0
-321 -349 0
-321 -350 0
-321 -351 0
-321 -352 0
-321 -353 0
-321 -354 0
-321 -355 0
-321 -356 0
-321 -357 0
-321 -358 0
-321 -359 0
-321 -360 0
-321 -361 0
-321 -362 0
-321 -363 0
-321 -364 0
-321 -365 0
-321 -366 0
-321 -367 0
-321 -368 0
-321 -369 0
-321 -370 0
-321 -371 0
-321 -372 0
-321 -373 0
-322 -323 0
-322 -324 0
-322 -325 0
-322 -326 0
-322 -327 0
-322 -328 0
-322 -329 0
-322 -330 0
-322 -331 0
-322 -332 0
-322 -333 0
-322 -334 0
-322 -335 0
-322 -336 0
-322 -337 0
-322 -338 0
-322 -339 0
-322 -340 0
-322 -341 0
-322 -342 0
-322 -343 0
-322 -344 0
-322 -345 0
-322 -346 0
-322 -347 0
-322 -348 0
-322 -349 0
-322 -350 0
-322 -351 0
-322 -352 0
-322 -353 0
-322 -354 0
-322 -355 0
-322 -356 0
-322 -357 0
-322 -358 0
-322 -359 0
-322 -360 0
-322 -361 0
-322 -362 0
-322 -363 0
-322 -364 0
-322 -365 0
-322 -366 0
-322 -367 0
-322 -368 0
-322 -369 0
-322 -370 0
-322 -371 0
-322 -372 0
-322 -373 0
-323 -324 0
-323 -325 0
-323 -326 0
-323 -327 0
-323 -328 0
-323 -329 0
-323 -330 0
-323 -331 0
-323 -332 0
-323 -333 0
-323 -334 0
-323 -335 0
-323 -336 0
-323 -337 0
-323 -338 0
-323 -339 0
-323 -340 0
-323 -341 0
-323 -342 0
-323 -343 0
-323 -344 0
-323 -345 0
-323 -346 0
-323 -347 0
-323 -348 0
-323 -349 0
-323 -350 0
-323 -351 0
-323 -352 0
-323 -353 0
-323 -354 0
-323 -355 0
-323 -356 0
-323 -357 0
-323 -358 0
-323 -359 0
-323 -360 0
-323 -361 0
-323 -362 0
-323 -363 0
-323 -364 0
-323 -365 0
-323 -366 0
-323 -367 0
-323 -368 0
-323 -369 0
-323 -370 0
-323 -371 0
-323 -372 0
-323 -373 0
-324 -325 0
-324 -326 0
-324 -327 0
-324 -328 0
-324 -329 0
-324 -330 0
-324 -331 0
-324 -332 0
-324 -333 0
-324 -334 0
-324 -335 0
-324 -336 0
-324 -337 0
-324 -338 0
-324 -339 0
-324 -340 0
-324 -341 0
-324 -342 0
-324 -343 0
-324 -344 0
-324 -345 0
-324 -346 0
-324 -347 0
-324 -348 0
-324 -349 0
-324 -350 0
-324 -351 0
-324 -352 0
-324 -353 0
-324 -354 0
-324 -355 0
-324 -356 0
-324 -357 0
-324 -358 0
-324 -359 0
-324 -360 0
-324 -361 0
-324 -362 0
-324 -363 0
-324 -364 0
-324 -365 0
-324 -366 0
-324 -367 0
-324 -368 0
-324 -369 0
-324 -370 0
-324 -371 0
-324 -372 0
-324 -373 0
-325 -326 0
-325 -327 0
-325 -328 0
-325 -329 0
-325 -330 0
-325 -331 0
-325 -332 0
-325 -333 0
-325 -334 0
-325 -335 0
-325 -336 0
-325 -337 0
-325 -338 0
-325 -339 0
-325 -340 0
-325 -341 0
-325 -342 0
-325 -343 0
-325 -344 0
-325 -345 0
-325 -346 0
-325 -347 0
-325 -348 0
-325 -349 0
-325 -350 0
-325 -351 0
-325 -352 0
-325 -353 0
-325 -354 0
-325 -355 0
-325 -356 0
-325 -357 0
-325 -358 0
-325 -359 0
-325 -360 0
-325 -361 0
-325 -362 0
-325 -363 0
-325 -364 0
-325 -365 0
-325 -366 0
-325 -367 0
-325 -368 0
-325 -369 0
-325 -370 0
-325 -371 0
-325 -372 0
-325 -373 0
-326 -327 0
-326 -328 0
-326 -329 0
-326 -330 0
-326 -331 0
-326 -332 0
-326 -333 0
-326 -334 0
-326 -335 0
-326 -336 0
-326 -337 0
-326 -338 0
-326 -339 0
-326 -340 0
-326 -341 0
-326 -342 0
-326 -343 0
-326 -344 0
-326 -345 0
-326 -346 0
-326 -347 0
-326 -348 0
-326 -349 0
-326 -350 0
-326 -351 0
-326 -352 0
-326 -353 0
-326 -354 0
-326 -355 0
-326 -356 0
-326 -357 0
-326 -358 0
-326 -359 0
-326 -360 0
-326 -361 0
-326 -362 0
-326 -363 0
-326 -364 0
-326 -365 0
-326 -366 0
-326 -367 0
-326 -368 0
-326 -369 0
-326 -370 0
-326 -371 0
-326 -372 0
-326 -373 0
-327 -328 0
-327 -329 0
-327 -330 0
-327 -331 0
-327 -332 0
-327 -333 0
-327 -334 0
-327 -335 0
-327 -336 0
-327 -337 0
-327 -338 0
-327 -339 0
-327 -340 0
-327 -341 0
-327 -342 0
-327 -343 0
-327 -344 0
-327 -345 0
-327 -346 0
-327 -347 0
-327 -348 0
-327 -349 0
-327 -350 0
-327 -351 0
-327 -352 0
-327 -353 0
-327 -354 0
-327 -355 0
-327 -356 0
-327 -357 0
-327 -358 0
-327 -359 0
-327 -360 0
-327 -361 0
-327 -362 0
-327 -363 0
-327 -364 0
-327 -365 0
-327 -366 0
-327 -367 0
-327 -368 0
-327 -369 0
-327 -370 0
-327 -371 0
-327 -372 0
-327 -373 0
-328 -329 0
-328 -330 0
-328 -331 0
-328 -332 0
-328 -333 0
-328 -334 0
-328 -335 0
-328 -336 0
-328 -337 0
-328 -338 0
-328 -339 0
-328 -340 0
-328 -341 0
-328 -342 0
-328 -343 0
-328 -344 0
-328 -345 0
-328 -346 0
-328 -347 0
-328 -348 0
-328 -349 0
-328 -350 0
-328 -351 0
-328 -352 0
-328 -353 0
-328 -354 0
-328 -355 0
-328 -356 0
-328 -357 0
-328 -358 0
-328 -359 0
-328 -360 0
-328 -361 0
-328 -362 0
-328 -363 0
-328 -364 0
-328 -365 0
-328 -366 0
-328 -367 0
-328 -368 0
-328 -369 0
-328 -370 0
-328 -371 0
-328 -372 0
-328 -373 0
-329 -330 0
-329 -331 0
-329 -332 0
-329 -333 0
-329 -334 0
-329 -335 0
-329 -336 0
-329 -337 0
-329 -338 0
-329 -339 0
-329 -340 0
-329 -341 0
-329 -342 0
-329 -343 0
-329 -344 0
-329 -345 0
-329 -346 0
-329 -347 0
-329 -348 0
-329 -349 0
-329 -350 0
-329 -351 0
-329 -352 0
-329 -353 0
-329 -354 0
-329 -355 0
-329 -356 0
-329 -357 0
-329 -358 0
-329 -359 0
-329 -360 0
-329 -361 0
-329 -362 0
-329 -363 0
-329 -364 0
-329 -365 0
-329 -366 0
-329 -367 0
-329 -368 0
-329 -369 0
-329 -370 0
-329 -371 0
-329 -372 0
-329 -373 0
-330 -331 0
-330 -332 0
-330 -333 0
-330 -334 0
-330 -335 0
-330 -336 0
-330 -337 0
-330 -338 0
-330 -339 0
-330 -340 0
-330 -341 0
-330 -342 0
-330 -343 0
-330 -344 0
-330 -345 0
-330 -346 0
-330 -347 0
-330 -348 0
-330 -349 0
-330 -350 0
-330 -351 0
-330 -352 0
-330 -353 0
-330 -354 0
-330 -355 0
-330 -356 0
-330 -357 0
-330 -358 0
-330 -359 0
-330 -360 0
-330 -361 0
-330 -362 0
-330 -363 0
-330 -364 0
-330 -365 0
-330 -366 0
-330 -367 0
-330 -368 0
-330 -369 0
-330 -370 0
-330 -371 0
-330 -372 0
-330 -373 0
-331 -332 0
-331 -333 0
-331 -334 0
-331 -335 0
-331 -336 0
-331 -337 0
-331 -338 0
-331 -339 0
-331 -340 0
-331 -341 0
-331 -342 0
-331 -343 0
-331 -344 0
-331 -345 0
-331 -346 0
-331 -347 0
-331 -348 0
-331 -349 0
-331 -350 0
-331 -351 0
-331 -352 0
-331 -353 0
-331 -354 0
-331 -355 0
-331 -356 0
-331 -357 0
-331 -358 0
-331 -359 0
-331 -360 0
-331 -361 0
-331 -362 0
-331 -363 0
-331 -364 0
-331 -365 0
-331 -366 0
-331 -367 0
-331 -368 0
-331 -369 0
-331 -370 0
-331 -371 0
-331 -372 0
-331 -373 0
-332 -333 0
-332 -334 0
-332 -335 0
-332 -336 0
-332 -337 0
-332 -338 0
-332 -339 0
-332 -340 0
-332 -341 0
-332 -342 0
-332 -343 0
-332 -344 0
-332 -345 0
-332 -346 0
-332 -347 0
-332 -348 0
-332 -349 0
-332 -350 0
-332 -351 0
-332 -352 0
-332 -353 0
-332 -354 0
-332 -355 0
-332 -356 0
-332 -357 0
-332 -358 0
-332 -359 0
-332 -360 0
-332 -361 0
-332 -362 0
-332 -363 0
-332 -364 0
-332 -365 0
-332 -366 0
-332 -367 0
-332 -368 0
-332 -369 0
-332 -370 0
-332 -371 0
-332 -372 0
-332 -373 0
-333 -334 0
-333 -335 0
-333 -336 0
-333 -337 0
-333 -338 0
-333 -339 0
-333 -340 0
-333 -341 0
-333 -342 0
-333 -343 0
-333 -344 0
-333 -345 0
-333 -346 0
-333 -347 0
-333 -348 0
-333 -349 0
-333 -350 0
-333 -351 0
-333 -352 0
-333 -353 0
-333 -354 0
-333 -355 0
-333 -356 0
-333 -357 0
-333 -358 0
-333 -359 0
-333 -360 0
-333 -361 0
-333 -362 0
-333 -363 0
-333 -364 0
-333 -365 0
-333 -366 0
-333 -367 0
-333 -368 0
-333 -369 0
-333 -370 0
-333 -371 0
-333 -372 0
-333 -373 0
-334 -335 0
-334 -336 0
-334 -337 0
-334 -338 0
-334 -339 0
-334 -340 0
-334 -341 0
-334 -342 0
-334 -343 0
-334 -344 0
-334 -345 0
-334 -346 0
-334 -347 0
-334 -348 0
-334 -349 0
-334 -350 0
-334 -351 0
-334 -352 0
-334 -353 0
-334 -354 0
-334 -355 0
-334 -356 0
-334 -357 0
-334 -358 0
-334 -359 0
-334 -360 0
-334 -361 0
-334 -362 0
-334 -363 0
-334 -364 0
-334 -365 0
-334 -366 0
-334 -367 0
-334 -368 0
-334 -369 0
-334 -370 0
-334 -371 0
-334 -372 0
-334 -373 0
-335 -336 0
-335 -337 0
-335 -338 0
-335 -339 0
-335 -340 0
-335 -341 0
-335 -342 0
-335 -343 0
-335 -344 0
-335 -345 0
-335 -346 0
-335 -347 0
-335 -348 0
-335 -349 0
-335 -350 0
-335 -351 0
-335 -352 0
-335 -353 0
-335 -354 0
-335 -355 0
-335 -356 0
-335 -357 0
-335 -358 0
-335 -359 0
-335 -360 0
-335 -361 0
-335 -362 0
-335 -363 0
-335 -364 0
-335 -365 0
-335 -366 0
-335 -367 0
-335 -368 0
-335 -369 0
-335 -370 0
-335 -371 0
-335 -372 0
-335 -373 0
-336 -337 0
-336 -338 0
-336 -339 0
-336 -340 0
-336 -341 0
-336 -342 0
-336 -343 0
-336 -344 0
-336 -345 0
-336 -346 0
-336 -347 0
-336 -348 0
-336 -349 0
-336 -350 0
-336 -351 0
-336 -352 0
-336 -353 0
-336 -354 0
-336 -355 0
-336 -356 0
-336 -357 0
-336 -358 0
-336 -359 0
-336 -360 0
-336 -361 0
-336 -362 0
-336 -363 0
-336 -364 0
-336 -365 0
-336 -366 0
-336 -367 0
-336 -368 0
-336 -369 0
-336 -370 0
-336 -371 0
-336 -372 0
-336 -373 0
-337 -338 0
-337 -339 0
-337 -340 0
-337 -341 0
-337 -342 0
-337 -343 0
-337 -344 0
-337 -345 0
-337 -346 0
-337 -347 0
-337 -348 0
-337 -349 0
-337 -350 0
-337 -351 0
-337 -352 0
-337 -353 0
-337 -354 0
-337 -355 0
-337 -356 0
-337 -357 0
-337 -358 0
-337 -359 0
-337 -360 0
-337 -361 0
-337 -362 0
-337 -363 0
-337 -364 0
-337 -365 0
-337 -366 0
-337 -367 0
-337 -368 0
-337 -369 0
-337 -370 0
-337 -371 0
-337 -372 0
-337 -373 0
-338 -339 0
-338 -340 0
-338 -341 0
-338 -342 0
-338 -343 0
-338 -344 0
-338 -345 0
-338 -346 0
-338 -347 0
-338 -348 0
-338 -349 0
-338 -350 0
-338 -351 0
-338 -352 0
-338 -353 0
-338 -354 0
-338 -355 0
-338 -356 0
-338 -357 0
-338 -358 0
-338 -359 0
-338 -360 0
-338 -361 0
-338 -362 0
-338 -363 0
-338 -364 0
-338 -365 0
-338 -366 0
-338 -367 0
-338 -368 0
-338 -369 0
-338 -370 0
-338 -371 0
-338 -372 0
-338 -373 0
-339 -340 0
-339 -341 0
-339 -342 0
-339 -343 0
-339 -344 0
-339 -345 0
-339 -346 0
-339 -347 0
-339 -348 0
-339 -349 0
-339 -350 0
-339 -351 0
-339 -352 0
-339 -353 0
-339 -354 0
-339 -355 0
-339 -356 0
-339 -357 0
-339 -358 0
-339 -359 0
-339 -360 0
-339 -361 0
-339 -362 0
-339 -363 0
-339 -364 0
-339 -365 0
-339 -366 0
-339 -367 0
-339 -368 0
-339 -369 0
-339 -370 0
-339 -371 0
-339 -372 0
-339 -373 0
-340 -341 0
-340 -342 0
-340 -343 0
-340 -344 0
-340 -345 0
-340 -346 0
-340 -347 0
-340 -348 0
-340 -349 0
-340 -350 0
-340 -351 0
-340 -352 0
-340 -353 0
-340 -354 0
-340 -355 0
-340 -356 0
-340 -357 0
-340 -358 0
-340 -359 0
-340 -360 0
-340 -361 0
-340 -362 0
-340 -363 0
-340 -364 0
-340 -365 0
-340 -366 0
-340 -367 0
-340 -368 0
-340 -369 0
-340 -370 0
-340 -371 0
-340 -372 0
-340 -373 0
-341 -342 0
-341 -343 0
-341 -344 0
-341 -345 0
-341 -346 0
-341 -347 0
-341 -348 0
-341 -349 0
-341 -350 0
-341 -351 0
-341 -352 0
-341 -353 0
-341 -354 0
-341 -355 0
-341 -356 0
-341 -357 0
-341 -358 0
-341 -359 0
-341 -360 0
-341 -361 0
-341 -362 0
-341 -363 0
-341 -364 0
-341 -365 0
-341 -366 0
-341 -367 0
-341 -368 0
-341 -369 0
-341 -370 0
-341 -371 0
-341 -372 0
-341 -373 0
-342 -343 0
-342 -344 0
-342 -345 0
-342 -346 0
-342 -347 0
-342 -348 0
-342 -349 0
-342 -350 0
-342 -351 0
-342 -352 0
-342 -353 0
-342 -354 0
-342 -355 0
-342 -356 0
-342 -357 0
-342 -358 0
-342 -359 0
-342 -360 0
-342 -361 0
-342 -362 0
-342 -363 0
-342 -364 0
-342 -365 0
-342 -366 0
-342 -367 0
-342 -368 0
-342 -369 0
-342 -370 0
-342 -371 0
-342 -372 0
-342 -373 0
-343 -344 0
-343 -345 0
-343 -346 0
-343 -347 0
-343 -348 0
-343 -349 0
-343 -350 0
-343 -351 0
-343 -352 0
-343 -353 0
-343 -354 0
-343 -355 0
-343 -356 0
-343 -357 0
-343 -358 0
-343 -359 0
-343 -360 0
-343 -361 0
-343 -362 0
-343 -363 0
-343 -364 0
-343 -365 0
-343 -366 0
-343 -367 0
-343 -368 0
-343 -369 0
-343 -370 0
-343 -371 0
-343 -372 0
-343 -373 0
-344 -345 0
-344 -346 0
-344 -347 0
-344 -348 0
-344 -349 0
-344 -350 0
-344 -351 0
-344 -352 0
-344 -353 0
-344 -354 0
-344 -355 0
-344 -356 0
-344 -357 0
-344 -358 0
-344 -359 0
-344 -360 0
-344 -361 0
-344 -362 0
-344 -363 0
-344 -364 0
-344 -365 0
-344 -366 0
-344 -367 0
-344 -368 0
-344 -369 0
-344 -370 0
-344 -371 0
-344 -372 0
-344 -373 0
-345 -346 0
-345 -347 0
-345 -348 0
-345 -349 0
-345 -350 0
-345 -351 0
-345 -352 0
-345 -353 0
-345 -354 0
-345 -355 0
-345 -356 0
-345 -357 0
-345 -358 0
-345 -359 0
-345 -360 0
-345 -361 0
-345 -362 0
-345 -363 0
-345 -364 0
-345 -365 0
-345 -366 0
-345 -367 0
-345 -368 0
-345 -369 0
-345 -370 0
-345 -371 0
-345 -372 0
-345 -373 0
-346 -347 0
-346 -348 0
-346 -349 0
-346 -350 0
-346 -351 0
-346 -352 0
-346 -353 0
-346 -354 0
-346 -355 0
-346 -356 0
-346 -357 0
-346 -358 0
-346 -359 0
-346 -360 0
-346 -361 0
-346 -362 0
-346 -363 0
-346 -364 0
-346 -365 0
-346 -366 0
-346 -367 0
-346 -368 0
-346 -369 0
-346 -370 0
-346 -371 0
-346 -372 0
-346 -373 0
-347 -348 0
-347 -349 0
-347 -350 0
-347 -351 0
-347 -352 0
-347 -353 0
-347 -354 0
-347 -355 0
-347 -356 0
-347 -357 0
-347 -358 0
-347 -359 0
-347 -360 0
-347 -361 0
-347 -362 0
-347 -363 0
-347 -364 0
-347 -365 0
-347 -366 0
-347 -367 0
-347 -368 0
-347 -369 0
-347 -370 0
-347 -371 0
-347 -372 0
-347 -373 0
-348 -349 0
-348 -350 0
-348 -351 0
-348 -352 0
-348 -353 0
-348 -354 0
-348 -355 0
-348 -356 0
-348 -357 0
-348 -358 0
-348 -359 0
-348 -360 0
-348 -361 0
-348 -362 0
-348 -363 0
-348 -364 0
-348 -365 0
-348 -366 0
-348 -367 0
-348 -368 0
-348 -369 0
-348 -370 0
-348 -371 0
-348 -372 0
-348 -373 0
-349 -350 0
-349 -351 0
-349 -352 0
-349 -353 0
-349 -354 0
-349 -355 0
-349 -356 0
-349 -357 0
-349 -358 0
-349 -359 0
-349 -360 0
-349 -361 0
-349 -362 0
-349 -363 0
-349 -364 0
-349 -365 0
-349 -366 0
-349 -367 0
-349 -368 0
-349 -369 0
-349 -370 0
-349 -371 0
-349 -372 0
-349 -373 0
-350 -351 0
-350 -352 0
-350 -353 0
-350 -354 0
-350 -355 0
-350 -356 0
-350 -357 0
-350 -358 0
-350 -359 0
-350 -360 0
-350 -361 0
-350 -362 0
-350 -363 0
-350 -364 0
-350 -365 0
-350 -366 0
-350 -367 0
-350 -368 0
-350 -369 0
-350 -370 0
-350 -371 0
-350 -372 0
-350 -373 0
-351 -352 0
-351 -353 0
-351 -354 0
-351 -355 0
-351 -356 0
-351 -357 0
-351 -358 0
-351 -359 0
-351 -360 0
-351 -361 0
-351 -362 0
-351 -363 0
-351 -364 0
-351 -365 0
-351 -366 0
-351 -367 0
-351 -368 0
-351 -369 0
-351 -370 0
-351 -371 0
-351 -372 0
-351 -373 0
-352 -353 0
-352 -354 0
-352 -355 0
-352 -356 0
-352 -357 0
-352 -358 0
-352 -359 0
-352 -360 0
-352 -361 0
-352 -362 0
-352 -363 0
-352 -364 0
-352 -365 0
-352 -366 0
-352 -367 0
-352 -368 0
-352 -369 0
-352 -370 0
-352 -371 0
-352 -372 0
-352 -373 0
-353 -354 0
-353 -355 0
-353 -356 0
-353 -357 0
-353 -358 0
-353 -359 0
-353 -360 0
-353 -361 0
-353 -362 0
-353 -363 0
-353 -364 0
-353 -365 0
-353 -366 0
-353 -367 0
-353 -368 0
-353 -369 0
-353 -370 0
-353 -371 0
-353 -372 0
-353 -373 0
-354 -355 0
-354 -356 0
-354 -357 0
-354 -358 0
-354 -359 0
-354 -360 0
-354 -361 0
-354 -362 0
-354 -363 0
-354 -364 0
-354 -365 0
-354 -366 0
-354 -367 0
-354 -368 0
-354 -369 0
-354 -370 0
-354 -371 0
-354 -372 0
-354 -373 0
-355 -356 0
-355 -357 0
-355 -358 0
-355 -359 0
-355 -360 0
-355 -361 0
-355 -362 0
-355 -363 0
-355 -364 0
-355 -365 0
-355 -366 0
-355 -367 0
-355 -368 0
-355 -369 0
-355 -370 0
-355 -371 0
-355 -372 0
-355 -373 0
-356 -357 0
-356 -358 0
-356 -359 0
-356 -360 0
-356 -361 0
-356 -362 0
-356 -363 0
-356 -364 0
-356 -365 0
-356 -366 0
-356 -367 0
-356 -368 0
-356 -369 0
-356 -370 0
-356 -371 0
-356 -372 0
-356 -373 0
-357 -358 0
-357 -359 0
-357 -360 0
-357 -361 0
-357 -362 0
-357 -363 0
-357 -364 0
-357 -365 0
-357 -366 0
-357 -367 0
-357 -368 0
-357 -369 0
-357 -370 0
-357 -371 0
-357 -372 0
-357 -373 0
-358 -359 0
-358 -360 0
-358 -361 0
-358 -362 0
-358 -363 0
-358 -364 0
-358 -365 0
-358 -366 0
-358 -367 0
-358 -368 0
-358 -369 0
-358 -370 0
-358 -371 0
-358 -372 0
-358 -373 0
-359 -360 0
-359 -361 0
-359 -362 0
-359 -363 0
-359 -364 0
-359 -365 0
-359 -366 0
-359 -367 0
-359 -368 0
-359 -369 0
-359 -370 0
-359 -371 0
-359 -372 0
-359 -373 0
-360 -361 0
-360 -362 0
-360 -363 0
-360 -364 0
-360 -365 0
-360 -366 0
-360 -367 0
-360 -368 0
-360 -369 0
-360 -370 0
-360 -371 0
-360 -372 0
-360 -373 0
-361 -362 0
-361 -363 0
-361 -364 0
-361 -365 0
-361 -366 0
-361 -367 0
-361 -368 0
-361 -369 0
-361 -370 0
-361 -371 0
-361 -372 0
-361 -373 0
-362 -363 0
-362 -364 0
-362 -365 0
-362 -366 0
-362 -367 0
-362 -368 0
-362 -369 0
-362 -370 0
-362 -371 0
-362 -372 0
-362 -373 0
-363 -364 0
-363 -365 0
-363 -366 0
-363 -367 0
-363 -368 0
-363 -369 0
-363 -370 0
-363 -371 0
-363 -372 0
-363 -373 0
-364 -365 0
-364 -366 0
-364 -367 0
-364 -368 0
-364 -369 0
-364 -370 0
-364 -371 0
-364 -372 0
-364 -373 0
-365 -366 0
-365 -367 0
-365 -368 0
-365 -369 0
-365 -370 0
-365 -371 0
-365 -372 0
-365 -373 0
-366 -367 0
-366 -368 0
-366 -369 0
-366 -370 0
-366 -371 0
-366 -372 0
-366 -373 0
-367 -368 0
-367 -369 0
-367 -370 0
-367 -371 0
-367 -372 0
-367 -373 0
-368 -369 0
-368 -370 0
-368 -371 0
-368 -372 0
-368 -373 0
-369 -370 0
-369 -371 0
-369 -372 0
-369 -373 0
-370 -371 0
-370 -372 0
-370 -373 0
-371 -372 0
-371 -373 0
-372 -373 0
374 375 376 377 378 379 380 381 382 383 384 385 386 387 388 389 390 391 392 393 394 395 396 397 398 399 400 401 402 403 404 405 406 407 408 409 410 411 412 413 414 415 416 417 418 419 420 421 422 423 424 425 426 427 428 429 430 431 432 433 434 435 436 437 438 439 440 441 442 443 444 445 446 447 448 449 450 451 452 453 454 455 456 457 0
-374 -375 0
-374 -376 0
-374 -377 0
-374 -378 0
-374 -379 0
-374 -380 0
-374 -381 0
-374 -382 0
-374 -383 0
-374 -384 0
-374 -385 0
-374 -386 0
-374 -387 0
-374 -388 0
-374 -389 0
-374 -390 0
-374 -391 0
-374 -392 0
-374 -393 0
-374 -394 0
-374 -395 0
-374 -396 0
-374 -397 0
-374 -398 0
-374 -399 0
-374 -400 0
-374 -401 0
-374 -402 0
-374 -403 0
-374 -404 0
-374 -405 0
-374 -406 0
-374 -407 0
-374 -408 0
-374 -409 0
-374 -410 0
-374 -411 0
-374 -412 0
-374 -413 0
-374 -414 0
-374 -415 0
-374 -416 0
-374 -417 0
-374 -418 0
-374 -419 0
-374 -420 0
-374 -421 0
-374 -422 0
-374 -423 0
-374 -424 0
-374 -425 0
-374 -426 0
-374 -427 0
-374 -428 0
-374 -429 0
-374 -430 0
-374 -431 0
-374 -432 0
-374 -433 0
-374 -434 0
-374 -435 0
-374 -436 0
-374 -437 0
-374 -438 0
-374 -439 0
-374 -440 0
-374 -441 0
-374 -442 0
-374 -443 0
-374 -444 0
-374 -445 0
-374 -446 0
-374 -447 0
-374 -448 0
-374 -449 0
-374 -450 0
-374 -451 0
-374 -452 0
-374 -453 0
-374 -454 0
-374 -455 0
-374 -456 0
-374 -457 0
-375 -376 0
-375 -377 0
-375 -378 0
-375 -379 0
-375 -380 0
-375 -381 0
-375 -382 0
-375 -383 0
-375 -384 0
-375 -385 0
-375 -386 0
-375 -387 0
-375 -388 0
-375 -389 0
-375 -390 0
-375 -391 0
-375 -392 0
-375 -393 0
-375 -394 0
-375 -395 0
-375 -396 0
-375 -397 0
-375 -398 0
-375 -399 0
-375 -400 0
-375 -401 0
-375 -402 0
-375 -403 0
-375 -404 0
-375 -405 0
-375 -406 0
-375 -407 0
-375 -408 0
-375 -409 0
-375 -410 0
-375 -411 0
-375 -412 0
-375 -413 0
-375 -414 0
-375 -415 0
-375 -416 0
-375 -417 0
-375 -418 0
-375 -419 0
-375 -420 0
-375 -421 0
-375 -422 0
-375 -423 0
-375 -424 0
-375 -425 0
-375 -426 0
-375 -427 0
-375 -428 0
-375 -429 0
-375 -430 0
-375 -431 0
-375 -432 0
-375 -433 0
-375 -434 0
-375 -435 0
-375 -436 0
-375 -437 0
-375 -438 0
-375 -439 0
-375 -440 0
-375 -441 0
-375 -442 0
-375 -443 0
-375 -444 0
-375 -445 0
-375 -446 0
-375 -447 0
-375 -448 0
-375 -449 0
-375 -450 0
-375 -451 0
-375 -452 0
-375 -453 0
-375 -454 0
-375 -455 0
-375 -456 0
-375 -457 0
-376 -377 0
-376 -378 0
-376 -379 0
-376 -380 0
-376 -381 0
-376 -382 0
-376 -383 0
-376 -384 0
-376 -385 0
-376 -386 0
-376 -387 0
-376 -388 0
-376 -389 0
-376 -390 0
-376 -391 0
-376 -392 0
-376 -393 0
-376 -394 0
-376 -395 0
-376 -396 0
-376 -397 0
-376 -398 0
-376 -399 0
-376 -400 0
-376 -401 0
-376 -402 0
-376 -403 0
-376 -404 0
-376 -405 0
-376 -406 0
-376 -407 0
-376 -408 0
-376 -409 0
-376 -410 0
-376 -411 0
-376 -412 0
-376 -413 0
-376 -414 0
-376 -415 0
-376 -416 0
-376 -417 0
-376 -418 0
-376 -419 0
-376 -420 0
-376 -421 0
-376 -422 0
-376 -423 0
-376 -424 0
-376 -425 0
-376 -426 0
-376 -427 0
-376 -428 0
-376 -429 0
-376 -430 0
-376 -431 0
-376 -432 0
-376 -433 0
-376 -434 0
-376 -435 0
-376 -436 0
-376 -437 0
-376 -438 0
-376 -439 0
-376 -440 0
-376 -441 0
-376 -442 0
-376 -443 0
-376 -444 0
-376 -445 0
-376 -446 0
-376 -447 0
-376 -448 0
-376 -449 0
-376 -450 0
-376 -451 0
-376 -452 0
-376 -453 0
-376 -454 0
-376 -455 0
-376 -456 0
-376 -457 0
-377 -378 0
-377 -379 0
-377 -380 0
-377 -381 0
-377 -382 0
-377 -383 0
-377 -384 0
-377 -385 0
-377 -386 0
-377 -387 0
-377 -388 0
-377 -389 0
-377 -390 0
-377 -391 0
-377 -392 0
-377 -393 0
-377 -394 0
-377 -395 0
-377 -396 0
-377 -397 0
-377 -398 0
-377 -399 0
-377 -400 0
-377 -401 0
-377 -402 0
-377 -403 0
-377 -404 0
-377 -405 0
-377 -406 0
-377 -407 0
-377 -408 0
-377 -409 0
-377 -410 0
-377 -411 0
-377 -412 0
-377 -413 0
-377 -414 0
-377 -415 0
-377 -416 0
-377 -417 0
-377 -418 0
-377 -419 0
-377 -420 0
-377 -421 0
-377 -422 0
-377 -423 0
-377 -424 0
-377 -425 0
-377 -426 0
-377 -427 0
-377 -428 0
-377 -429 0
-377 -430 0
-377 -431 0
-377 -432 0
-377 -433 0
-377 -434 0
-377 -435 0
-377 -436 0
-377 -437 0
-377 -438 0
-377 -439 0
-377 -440 0
-377 -441 0
-377 -442 0
-377 -443 0
-377 -444 0
-377 -445 0
-377 -446 0
-377 -447 0
-377 -448 0
-377 -449 0
-377 -450 0
-377 -451 0
-377 -452 0
-377 -453 0
-377 -454 0
-377 -455 0
-377 -456 0
-377 -457 0
-378 -379 0
-378 -380 0
-378 -381 0
-378 -382 0
-378 -383 0
-378 -384 0
-378 -385 0
-378 -386 0
-378 -387 0
-378 -388 0
-378 -389 0
-378 -390 0
-378 -391 0
-378 -392 0
-378 -393 0
-378 -394 0
-378 -395 0
-378 -396 0
-378 -397 0
-378 -398 0
-378 -399 0
-378 -400 0
-378 -401 0
-378 -402 0
-378 -403 0
-378 -404 0
-378 -405 0
-378 -406 0
-378 -407 0
-378 -408 0
-378 -409 0
-378 -410 0
-378 -411 0
-378 -412 0
-378 -413 0
-378 -414 0
-378 -415 0
-378 -416 0
-378 -417 0
-378 -418 0
-378 -419 0
-378 -420 0
-378 -421 0
-378 -422 0
-378 -423 0
-378 -424 0
-378 -425 0
-378 -426 0
-378 -427 0
-378 -428 0
-378 -429 0
-378 -430 0
-378 -431 0
-378 -432 0
-378 -433 0
-378 -434 0
-378 -435 0
-378 -436 0
-378 -437 0
-378 -438 0
-378 -439 0
-378 -440 0
-378 -441 0
-378 -442 0
-378 -443 0
-378 -444 0
-378 -445 0
-378 -446 0
-378 -447 0
-378 -448 0
-378 -449 0
-378 -450 0
-378 -451 0
-378 -452 0
-378 -453 0
-378 -454 0
-378 -455 0
-378 -456 0
-378 -457 0
-379 -380 0
-379 -381 0
-379 -382 0
-379 -383 0
-379 -384 0
-379 -385 0
-379 -386 0
-379 -387 0
-379 -388 0
-379 -389 0
-379 -390 0
-379 -391 0
-379 -392 0
-379 -393 0
-379 -394 0
-379 -395 0
-379 -396 0
-379 -397 0
-379 -398 0
-379 -399 0
-379 -400 0
-379 -401 0
-379 -402 0
-379 -403 0
-379 -404 0
-379 -405 0
-379 -406 0
-379 -407 0
-379 -408 0
-379 -409 0
-379 -410 0
-379 -411 0
-379 -412 0
-379 -413 0
-379 -414 0
-379 -415 0
-379 -416 0
-379 -417 0
-379 -418 0
-379 -419 0
-379 -420 0
-379 -421 0
-379 -422 0
-379 -423 0
-379 -424 0
-379 -425 0
-379 -426 0
-379 -427 0
-379 -428 0
-379 -429 0
-379 -430 0
-379 -431 0
-379 -432 0
-379 -433 0
-379 -434 0
-379 -435 0
-379 -436 0
-379 -437 0
-379 -438 0
-379 -439 0
-379 -440 0
-379 -441 0
-379 -442 0
-379 -443 0
-379 -444 0
-379 -445 0
-379 -446 0
-379 -447 0
-379 -448 0
-379 -449 0
-379 -450 0
-379 -451 0
-379 -452 0
-379 -453 0
-379 -454 0
-379 -455 0
-379 -456 0
-379 -457 0
-380 -381 0
-380 -382 0
-380 -383 0
-380 -384 0
-380 -385 0
-380 -386 0
-380 -387 0
-380 -388 0
-380 -389 0
-380 -390 0
-380 -391 0
-380 -392 0
-380 -393 0
-380 -394 0
-380 -395 0
-380 -396 0
-380 -397 0
-380 -398 0
-380 -399 0
-380 -400 0
-380 -401 0
-380 -402 0
-380 -403 0
-380 -404 0
-380 -405 0
-380 -406 0
-380 -407 0
-380 -408 0
-380 -409 0
-380 -410 0
-380 -411 0
-380 -412 0
-380 -413 0
-380 -414 0
-380 -415 0
-380 -416 0
-380 -417 0
-380 -418 0
-380 -419 0
-380 -420 0
-380 -421 0
-380 -422 0
-380 -423 0
-380 -424 0
-380 -425 0
-380 -426 0
-380 -427 0
-380 -428 0
-380 -429 0
-380 -430 0
-380 -431 0
-380 -432 0
-380 -433 0
-380 -434 0
-380 -435 0
-380 -436 0
-380 -437 0
-380 -438 0
-380 -439 0
-380 -440 0
-380 -441 0
-380 -442 0
-380 -443 0
-380 -444 0
-380 -445 0
-380 -446 0
-380 -447 0
-380 -448 0
-380 -449 0
-380 -450 0
-380 -451 0
-380 -452 0
-380 -453 0
-380 -454 0
-380 -455 0
-380 -456 0
-380 -457 0
-381 -382 0
-381 -383 0
-381 -384 0
-381 -385 0
-381 -386 0
-381 -387 0
-381 -388 0
-381 -389 0
-381 -390 0
-381 -391 0
-381 -392 0
-381 -393 0
-381 -394 0
-381 -395 0
-381 -396 0
-381 -397 0
-381 -398 0
-381 -399 0
-381 -400 0
-381 -401 0
-381 -402 0
-381 -403 0
-381 -404 0
-381 -405 0
-381 -406 0
-381 -407 0
-381 -408 0
-381 -409 0
-381 -410 0
-381 -411 0
-381 -412 0
-381 -413 0
-381 -414 0
-381 -415 0
-381 -416 0
-381 -417 0
-381 -418 0
-381 -419 0
-381 -420 0
-381 -421 0
-381 -422 0
-381 -423 0
-381 -424 0
-381 -425 0
-381 -426 0
-381 -427 0
-381 -428 0
-381 -429 0
-381 -430 0
-381 -431 0
-381 -432 0
-381 -433 0
-381 -434 0
-381 -435 0
-381 -436 0
-381 -437 0
-381 -438 0
-381 -439 0
-381 -440 0
-381 -441 0
-381 -442 0
-381 -443 0
-381 -444 0
-381 -445 0
-381 -446 0
-381 -447 0
-381 -448 0
-381 -449 0
-381 -450 0
-381 -451 0
-381 -452 0
-381 -453 0
-381 -454 0
-381 -455 0
-381 -456 0
-381 -457 0
-382 -383 0
-382 -384 0
-382 -385 0
-382 -386 0
-382 -387 0
-382 -388 0
-382 -389 0
-382 -390 0
-382 -391 0
-382 -392 0
-382 -393 0
-382 -394 0
-382 -395 0
-382 -396 0
-382 -397 0
-382 -398 0
-382 -399 0
-382 -400 0
-382 -401 0
-382 -402 0
-382 -403 0
-382 -404 0
-382 -405 0
-382 -406 0
-382 -407 0
-382 -408 0
-382 -409 0
-382 -410 0
-382 -411 0
-382 -412 0
-382 -413 0
-382 -414 0
-382 -415 0
-382 -416 0
-382 -417 0
-382 -418 0
-382 -419 0
-382 -420 0
-382 -421 0
-382 -422 0
-382 -423 0
-382 -424 0
-382 -425 0
-382 -426 0
-382 -427 0
-382 -428 0
-382 -429 0
-382 -430 0
-382 -431 0
-382 -432 0
-382 -433 0
-382 -434 0
-382 -435 0
-382 -436 0
-382 -437 0
-382 -438 0
-382 -439 0
-382 -440 0
-382 -441 0
-382 -442 0
-382 -443 0
-382 -444 0
-382 -445 0
-382 -446 0
-382 -447 0
-382 -448 0
-382 -449 0
-382 -450 0
-382 -451 0
-382 -452 0
-382 -453 0
-382 -454 0
-382 -455 0
-382 -456 0
-382 -457 0
-383 -384 0
-383 -385 0
-383 -386 0
-383 -387 0
-383 -388 0
-383 -389 0
-383 -390 0
-383 -391 0
-383 -392 0
-383 -393 0
-383 -394 0
-383 -395 0
-383 -396 0
-383 -397 0
-383 -398 0
-383 -399 0
-383 -400 0
-383 -401 0
-383 -402 0
-383 -403 0
-383 -404 0
-383 -405 0
-383 -406 0
-383 -407 0
-383 -408 0
-383 -409 0
-383 -410 0
-383 -411 0
-383 -412 0
-383 -413 0
-383 -414 0
-383 -415 0
-383 -416 0
-383 -417 0
-383 -418 0
-383 -419 0
-383 -420 0
-383 -421 0
-383 -422 0
-383 -423 0
-383 -424 0
-383 -425 0
-383 -426 0
-383 -427 0
-383 -428 0
-383 -429 0
-383 -430 0
-383 -431 0
-383 -432 0
-383 -433 0
-383 -434 0
-383 -435 0
-383 -436 0
-383 -437 0
-383 -438 0
-383 -439 0
-383 -440 0
-383 -441 0
-383 -442 0
-383 -443 0
-383 -444 0
-383 -445 0
-383 -446 0
-383 -447 0
-383 -448 0
-383 -449 0
-383 -450 0
-383 -451 0
-383 -452 0
-383 -453 0
-383 -454 0
-383 -455 0
-383 -456 0
-383 -457 0
-384 -385 0
-384 -386 0
-384 -387 0
-384 -388 0
-384 -389 0
-384 -390 0
-384 -391 0
-384 -392 0
-384 -393 0
-384 -394 0
-384 -395 0
-384 -396 0
-384 -397 0
-384 -398 0
-384 -399 0
-384 -400 0
-384 -401 0
-384 -402 0
-384 -403 0
-384 -404 0
-384 -405 0
-384 -406 0
-384 -407 0
-384 -408 0
-384 -409 0
-384 -410 0
-384 -411 0
-384 -412 0
-384 -413 0
-384 -414 0
-384 -415 0
-384 -416 0
-384 -417 0
-384 -418 0
-384 -419 0
-384 -420 0
-384 -421 0
-384 -422 0
-384 -423 0
-384 -424 0
-384 -425 0
-384 -426 0
-384 -427 0
-384 -428 0
-384 -429 0
-384 -430 0
-384 -431 0
-384 -432 0
-384 -433 0
-384 -434 0
-384 -435 0
-384 -436 0
-384 -437 0
-384 -438 0
-384 -439 0
-384 -440 0
-384 -441 0
-384 -442 0
-384 -443 0
-384 -444 0
-384 -445 0
-384 -446 0
-384 -447 0
-384 -448 0
-384 -449 0
-384 -450 0
-384 -451 0
-384 -452 0
-384 -453 0
-384 -454 0
-384 -455 0
-384 -456 0
-384 -457 0
-385 -386 0
-385 -387 0
-385 -388 0
-385 -389 0
-385 -390 0
-385 -391 0
-385 -392 0
-385 -393 0
-385 -394 0
-385 -395 0
-385 -396 0
-385 -397 0
-385 -398 0
-385 -399 0
-385 -400 0
-385 -401 0
-385 -402 0
-385 -403 0
-385 -404 0
-385 -405 0
-385 -406 0
-385 -407 0
-385 -408 0
-385 -409 0
-385 -410 0
-385 -411 0
-385 -412 0
-385 -413 0
-385 -414 0
-385 -415 0
-385 -416 0
-385 -417 0
-385 -418 0
-385 -419 0
-385 -420 0
-385 -421 0
-385 -422 0
-385 -423 0
-385 -424 0
-385 -425 0
-385 -426 0
-385 -427 0
-385 -428 0
-385 -429 0
-385 -430 0
-385 -431 0
-385 -432 0
-385 -433 0
-385 -434 0
-385 -435 0
-385 -436 0
-385 -437 0
-385 -438 0
-385 -439 0
-385 -440 0
-385 -441 0
-385 -442 0
-385 -443 0
-385 -444 0
-385 -445 0
-385 -446 0
-385 -447 0
-385 -448 0
-385 -449 0
-385 -450 0
-385 -451 0
-385 -452 0
-385 -453 0
-385 -454 0
-385 -455 0
-385 -456 0
-385 -457 0
-386 -387 0
-386 -388 0
-386 -389 0
-386 -390 0
-386 -391 0
-386 -392 0
-386 -393 0
-386 -394 0
-386 -395 0
-386 -396 0
-386 -397 0
-386 -398 0
-386 -399 0
-386 -400 0
-386 -401 0
-386 -402 0
-386 -403 0
-386 -404 0
-386 -405 0
-386 -406 0
-386 -407 0
-386 -408 0
-386 -409 0
-386 -410 0
-386 -411 0
-386 -412 0
-386 -413 0
-386 -414 0
-386 -415 0
-386 -416 0
-386 -417 0
-386 -418 0
-386 -419 0
-386 -420 0
-386 -421 0
-386 -422 0
-386 -423 0
-386 -424 0
-386 -425 0
-386 -426 0
-386 -427 0
-386 -428 0
-386 -429 0
-386 -430 0
-386 -431 0
-386 -432 0
-386 -433 0
-386 -434 0
-386 -435 0
-386 -436 0
-386 -437 0
-386 -438 0
-386 -439 0
-386 -440 0
-386 -441 0
-386 -442 0
-386 -443 0
-386 -444 0
-386 -445 0
-386 -446 0
-386 -447 0
-386 -448 0
-386 -449 0
-386 -450 0
-386 -451 0
-386 -452 0
-386 -453 0
-386 -454 0
-386 -455 0
-386 -456 0
-386 -457 0
-387 -388 0
-387 -389 0
-387 -390 0
-387 -391 0
-387 -392 0
-387 -393 0
-387 -394 0
-387 -395 0
-387 -396 0
-387 -397 0
-387 -398 0
-387 -399 0
-387 -400 0
-387 -401 0
-387 -402 0
-387 -403 0
-387 -404 0
-387 -405 0
-387 -406 0
-387 -407 0
-387 -408 0
-387 -409 0
-387 -410 0
-387 -411 0
-387 -412 0
-387 -413 0
-387 -414 0
-387 -415 0
-387 -416 0
-387 -417 0
-387 -418 0
-387 -419 0
-387 -420 0
-387 -421 0
-387 -422 0
-387 -423 0
-387 -424 0
-387 -425 0
-387 -426 0
-387 -427 0
-387 -428 0
-387 -429 0
-387 -430 0
-387 -431 0
-387 -432 0
-387 -433 0
-387 -434 0
-387 -435 0
-387 -436 0
-387 -437 0
-387 -438 0
-387 -439 0
-387 -440 0
-387 -441 0
-387 -442 0
-387 -443 0
-387 -444 0
-387 -445 0
-387 -446 0
-387 -447 0
-387 -448 0
-387 -449 0
-387 -450 0
-387 -451 0
-387 -452 0
-387 -453 0
-387 -454 0
-387 -455 0
-387 -456 0
-387 -457 0
-388 -389 0
-388 -390 0
-388 -391 0
-388 -392 0
-388 -393 0
-388 -394 0
-388 -395 0
-388 -396 0
-388 -397 0
-388 -398 0
-388 -399 0
-388 -400 0
-388 -401 0
-388 -402 0
-388 -403 0
-388 -404 0
-388 -405 0
-388 -406 0
-388 -407 0
-388 -408 0
-388 -409 0
-388 -410 0
-388 -411 0
-388 -412 0
-388 -413 0
-388 -414 0
-388 -415 0
-388 -416 0
-388 -417 0
-388 -418 0
-388 -419 0
-388 -420 0
-388 -421 0
-388 -422 0
-388 -423 0
-388 -424 0
-388 -425 0
-388 -426 0
-388 -427 0
-388 -428 0
-388 -429 0
-388 -430 0
-388 -431 0
-388 -432 0
-388 -433 0
-388 -434 0
-388 -435 0
-388 -436 0
-388 -437 0
-388 -438 0
-388 -439 0
-388 -440 0
-388 -441 0
-388 -442 0
-388 -443 0
-388 -444 0
-388 -445 0
-388 -446 0
-388 -447 0
-388 -448 0
-388 -449 0
-388 -450 0
-388 -451 0
-388 -452 0
-388 -453 0
-388 -454 0
-388 -455 0
-388 -456 0
-388 -457 0
-389 -390 0
-389 -391 0
-389 -392 0
-389 -393 0
-389 -394 0
-389 -395 0
-389 -396 0
-389 -397 0
-389 -398 0
-389 -399 0
-389 -400 0
-389 -401 0
-389 -402 0
-389 -403 0
-389 -404 0
-389 -405 0
-389 -406 0
-389 -407 0
-389 -408 0
-389 -409 0
-389 -410 0
-389 -411 0
-389 -412 0
-389 -413 0
-389 -414 0
-389 -415 0
-389 -416 0
-389 -417 0
-389 -418 0
-389 -419 0
-389 -420 0
-389 -421 0
-389 -422 0
-389 -423 0
-389 -424 0
-389 -425 0
-389 -426 0
-389 -427 0
-389 -428 0
-389 -429 0
-389 -430 0
-389 -431 0
-389 -432 0
-389 -433 0
-389 -434 0
-389 -435 0
-389 -436 0
-389 -437 0
-389 -438 0
-389 -439 0
-389 -440 0
-389 -441 0
-389 -442 0
-389 -443 0
-389 -444 0
-389 -445 0
-389 -446 0
-389 -447 0
-389 -448 0
-389 -449 0
-389 -450 0
-389 -451 0
-389 -452 0
-389 -453 0
-389 -454 0
-389 -455 0
-389 -456 0
-389 -457 0
-390 -391 0
-390 -392 0
-390 -393 0
-390 -394 0
-390 -395 0
-390 -396 0
-390 -397 0
-390 -398 0
-390 -399 0
-390 -400 0
-390 -401 0
-390 -402 0
-390 -403 0
-390 -404 0
-390 -405 0
-390 -406 0
-390 -407 0
-390 -408 0
-390 -409 0
-390 -410 0
-390 -411 0
-390 -412 0
-390 -413 0
-390 -414 0
-390 -415 0
-390 -416 0
-390 -417 0
-390 -418 0
-390 -419 0
-390 -420 0
-390 -421 0
-390 -422 0
-390 -423 0
-390 -424 0
-390 -425 0
-390 -426 0
-390 -427 0
-390 -428 0
-390 -429 0
-390 -430 0
-390 -431 0
-390 -432 0
-390 -433 0
-390 -434 0
-390 -435 0
-390 -436 0
-390 -437 0
-390 -438 0
-390 -439 0
-390 -440 0
-390 -441 0
-390 -442 0
-390 -443 0
-390 -444 0
-390 -445 0
-390 -446 0
-390 -447 0
-390 -448 0
-390 -449 0
-390 -450 0
-390 -451 0
-390 -452 0
-390 -453 0
-390 -454 0
-390 -455 0
-390 -456 0
-390 -457 0
-391 -392 0
-391 -393 0
-391 -394 0
-391 -395 0
-391 -396 0
-391 -397 0
-391 -398 0
-391 -399 0
-391 -400 0
-391 -401 0
-391 -402 0
-391 -403 0
-391 -404 0
-391 -405 0
-391 -406 0
-391 -407 0
-391 -408 0
-391 -409 0
-391 -410 0
-391 -411 0
-391 -412 0
-391 -413 0
-391 -414 0
-391 -415 0
-391 -416 0
-391 -417 0
-391 -418 0
-391 -419 0
-391 -420 0
-391 -421 0
-391 -422 0
-391 -423 0
-391 -424 0
-391 -425 0
-391 -426 0
-391 -427 0
-391 -428 0
-391 -429 0
-391 -430 0
-391 -431 0
-391 -432 0
-391 -433 0
-391 -434 0
-391 -435 0
-391 -436 0
-391 -437 0
-391 -438 0
-391 -439 0
-391 -440 0
-391 -441 0
-391 -442 0
-391 -443 0
-391 -444 0
-391 -445 0
-391 -446 0
-391 -447 0
-391 -448 0
-391 -449 0
-391 -450 0
-391 -451 0
-391 -452 0
-391 -453 0
-391 -454 0
-391 -455 0
-391 -456 0
-391 -457 0
-392 -393 0
-392 -394 0
-392 -395 0
-392 -396 0
-392 -397 0
-392 -398 0
-392 -399 0
-392 -400 0
-392 -401 0
-392 -402 0
-392 -403 0
-392 -404 0
-392 -405 0
-392 -406 0
-392 -407 0
-392 -408 0
-392 -409 0
-392 -410 0
-392 -411 0
-392 -412 0
-392 -413 0
-392 -414 0
-392 -415 0
-392 -416 0
-392 -417 0
-392 -418 0
-392 -419 0
-392 -420 0
-392 -421 0
-392 -422 0
-392 -423 0
-392 -424 0
-392 -425 0
-392 -426 0
-392 -427 0
-392 -428 0
-392 -429 0
-392 -430 0
-392 -431 0
-392 -432 0
-392 -433 0
-392 -434 0
-392 -435 0
-392 -436 0
-392 -437 0
-392 -438 0
-392 -439 0
-392 -440 0
-392 -441 0
-392 -442 0
-392 -443 0
-392 -444 0
-392 -445 0
-392 -446 0
-392 -447 0
-392 -448 0
-392 -449 0
-392 -450 0
-392 -451 0
-392 -452 0
-392 -453 0
-392 -454 0
-392 -455 0
-392 -456 0
-392 -457 0
-393 -394 0
-393 -395 0
-393 -396 0
-393 -397 0
-393 -398 0
-393 -399 0
-393 -400 0
-393 -401 0
-393 -402 0
-393 -403 0
-393 -404 0
-393 -405 0
-393 -406 0
-393 -407 0
-393 -408 0
-393 -409 0
-393 -410 0
-393 -411 0
-393 -412 0
-393 -413 0
-393 -414 0
-393 -415 0
-393 -416 0
-393 -417 0
-393 -418 0
-393 -419 0
-393 -420 0
-393 -421 0
-393 -422 0
-393 -423 0
-393 -424 0
-393 -425 0
-393 -426 0
-393 -427 0
-393 -428 0
-393 -429 0
-393 -430 0
-393 -431 0
-393 -432 0
-393 -433 0
-393 -434 0
-393 -435 0
-393 -436 0
-393 -437 0
-393 -438 0
-393 -439 0
-393 -440 0
-393 -441 0
-393 -442 0
-393 -443 0
-393 -444 0
-393 -445 0
-393 -446 0
-393 -447 0
-393 -448 0
-393 -449 0
-393 -450 0
-393 -451 0
-393 -452 0
-393 -453 0
-393 -454 0
-393 -455 0
-393 -456 0
-393 -457 0
-394 -395 0
-394 -396 0
-394 -397 0
-394 -398 0
-394 -399 0
-394 -400 0
-394 -401 0
-394 -402 0
-394 -403 0
-394 -404 0
-394 -405 0
-394 -406 0
-394 -407 0
-394 -408 0
-394 -409 0
-394 -410 0
-394 -411 0
-394 -412 0
-394 -413 0
-394 -414 0
-394 -415 0
-394 -416 0
-394 -417 0
-394 -418 0
-394 -419 0
-394 -420 0
-394 -421 0
-394 -422 0
-394 -423 0
-394 -424 0
-394 -425 0
-394 -426 0
-394 -427 0
-394 -428 0
-394 -429 0
-394 -430 0
-394 -431 0
-394 -432 0
-394 -433 0
-394 -434 0
-394 -435 0
-394 -436 0
-394 -437 0
-394 -438 0
-394 -439 0
-394 -440 0
-394 -441 0
-394 -442 0
-394 -443 0
-394 -444 0
-394 -445 0
-394 -446 0
-394 -447 0
-394 -448 0
-394 -449 0
-394 -450 0
-394 -451 0
-394 -452 0
-394 -453 0
-394 -454 0
-394 -455 0
-394 -456 0
-394 -457 0
-395 -396 0
-395 -397 0
-395 -398 0
-395 -399 0
-395 -400 0
-395 -401 0
-395 -402 0
-395 -403 0
-395 -404 0
-395 -405 0
-395 -406 0
-395 -407 0
-395 -408 0
-395 -409 0
-395 -410 0
-395 -411 0
-395 -412 0
-395 -413 0
-395 -414 0
-395 -415 0
-395 -416 0
-395 -417 0
-395 -418 0
-395 -419 0
-395 -420 0
-395 -421 0
-395 -422 0
-395 -423 0
-395 -424 0
-395 -425 0
-395 -426 0
-395 -427 0
-395 -428 0
-395 -429 0
-395 -430 0
-395 -431 0
-395 -432 0
-395 -433 0
-395 -434 0
-395 -435 0
-395 -436 0
-395 -437 0
-395 -438 0
-395 -439 0
-395 -440 0
-395 -441 0
-395 -442 0
-395 -443 0
-395 -444 0
-395 -445 0
-395 -446 0
-395 -447 0
-395 -448 0
-395 -449 0
-395 -450 0
-395 -451 0
-395 -452 0
-395 -453 0
-395 -454 0
-395 -455 0
-395 -456 0
-395 -457 0
-396 -397 0
-396 -398 0
-396 -399 0
-396 -400 0
-396 -401 0
-396 -402 0
-396 -403 0
-396 -404 0
-396 -405 0
-396 -406 0
-396 -407 0
-396 -408 0
-396 -409 0
-396 -410 0
-396 -411 0
-396 -412 0
-396 -413 0
-396 -414 0
-396 -415 0
-396 -416 0
-396 -417 0
-396 -418 0
-396 -419 0
-396 -420 0
-396 -421 0
-396 -422 0
-396 -423 0
-396 -424 0
-396 -425 0
-396 -426 0
-396 -427 0
-396 -428 0
-396 -429 0
-396 -430 0
-396 -431 0
-396 -432 0
-396 -433 0
-396 -434 0
-396 -435 0
-396 -436 0
-396 -437 0
-396 -438 0
-396 -439 0
-396 -440 0
-396 -441 0
-396 -442 0
-396 -443 0
-396 -444 0
-396 -445 0
-396 -446 0
-396 -447 0
-396 -448 0
-396 -449 0
-396 -450 0
-396 -451 0
-396 -452 0
-396 -453 0
-396 -454 0
-396 -455 0
-396 -456 0
-396 -457 0
-397 -398 0
-397 -399 0
-397 -400 0
-397 -401 0
-397 -402 0
-397 -403 0
-397 -404 0
-397 -405 0
-397 -406 0
-397 -407 0
-397 -408 0
-397 -409 0
-397 -410 0
-397 -411 0
-397 -412 0
-397 -413 0
-397 -414 0
-397 -415 0
-397 -416 0
-397 -417 0
-397 -418 0
-397 -419 0
-397 -420 0
-397 -421 0
-397 -422 0
-397 -423 0
-397 -424 0
-397 -425 0
-397 -426 0
-397 -427 0
-397 -428 0
-397 -429 0
-397 -430 0
-397 -431 0
-397 -432 0
-397 -433 0
-397 -434 0
-397 -435 0
-397 -436 0
-397 -437 0
-397 -438 0
-397 -439 0
-397 -440 0
-397 -441 0
-397 -442 0
-397 -443 0
-397 -444 0
-397 -445 0
-397 -446 0
-397 -447 0
-397 -448 0
-397 -449 0
-397 -450 0
-397 -451 0
-397 -452 0
-397 -453 0
-397 -454 0
-397 -455 0
-397 -456 0
-397 -457 0
-398 -399 0
-398 -400 0
-398 -401 0
-398 -402 0
-398 -403 0
-398 -404 0
-398 -405 0
-398 -406 0
-398 -407 0
-398 -408 0
-398 -409 0
-398 -410 0
-398 -411 0
-398 -412 0
-398 -413 0
-398 -414 0
-398 -415 0
-398 -416 0
-398 -417 0
-398 -418 0
-398 -419 0
-398 -420 0
-398 -421 0
-398 -422 0
-398 -423 0
-398 -424 0
-398 -425 0
-398 -426 0
-398 -427 0
-398 -428 0
-398 -429 0
-398 -430 0
-398 -431 0
-398 -432 0
-398 -433 0
-398 -434 0
-398 -435 0
-398 -436 0
-398 -437 0
-398 -438 0
-398 -439 0
-398 -440 0
-398 -441 0
-398 -442 0
-398 -443 0
-398 -444 0
-398 -445 0
-398 -446 0
-398 -447 0
-398 -448 0
-398 -449 0
-398 -450 0
-398 -451 0
-398 -452 0
-398 -453 0
-398 -454 0
-398 -455 0
-398 -456 0
-398 -457 0
-399 -400 0
-399 -401 0
-399 -402 0
-399 -403 0
-399 -404 0
-399 -405 0
-399 -406 0
-399 -407 0
-399 -408 0
-399 -409 0
-399 -410 0
-399 -411 0
-399 -412 0
-399 -413 0
-399 -414 0
-399 -415 0
-399 -416 0
-399 -417 0
-399 -418 0
-399 -419 0
-399 -420 0
-399 -421 0
-399 -422 0
-399 -423 0
-399 -424 0
-399 -425 0
-399 -426 0
-399 -427 0
-399 -428 0
-399 -429 0
-399 -430 0
-399 -431 0
-399 -432 0
-399 -433 0
-399 -434 0
-399 -435 0
-399 -436 0
-399 -437 0
-399 -438 0
-399 -439 0
-399 -440 0
-399 -441 0
-399 -442 0
-399 -443 0
-399 -444 0
-399 -445 0
-399 -446 0
-399 -447 0
-399 -448 0
-399 -449 0
-399 -450 0
-399 -451 0
-399 -452 0
-399 -453 0
-399 -454 0
-399 -455 0
-399 -456 0
-399 -457 0
-400 -401 0
-400 -402 0
-400 -403 0
-400 -404 0
-400 -405 0
-400 -406 0
-400 -407 0
-400 -408 0
-400 -409 0
-400 -410 0
-400 -411 0
-400 -412 0
-400 -413 0
-400 -414 0
-400 -415 0
-400 -416 0
-400 -417 0
-400 -418 0
-400 -419 0
-400 -420 0
-400 -421 0
-400 -422 0
-400 -423 0
-400 -424 0
-400 -425 0
-400 -426 0
-400 -427 0
-400 -428 0
-400 -429 0
-400 -430 0
-400 -431 0
-400 -432 0
-400 -433 0
-400 -434 0
-400 -435 0
-400 -436 0
-400 -437 0
-400 -438 0
-400 -439 0
-400 -440 0
-400 -441 0
-400 -442 0
-400 -443 0
-400 -444 0
-400 -445 0
-400 -446 0
-400 -447 0
-400 -448 0
-400 -449 0
-400 -450 0
-400 -451 0
-400 -452 0
-400 -453 0
-400 -454 0
-400 -455 0
-400 -456 0
-400 -457 0
-401 -402 0
-401 -403 0
-401 -404 0
-401 -405 0
-401 -406 0
-401 -407 0
-401 -408 0
-401 -409 0
-401 -410 0
-401 -411 0
-401 -412 0
-401 -413 0
-401 -414 0
-401 -415 0
-401 -416 0
-401 -417 0
-401 -418 0
-401 -419 0
-401 -420 0
-401 -421 0
-401 -422 0
-401 -423 0
-401 -424 0
-401 -425 0
-401 -426 0
-401 -427 0
-401 -428 0
-401 -429 0
-401 -430 0
-401 -431 0
-401 -432 0
-401 -433 0
-401 -434 0
-401 -435 0
-401 -436 0
-401 -437 0
-401 -438 0
-401 -439 0
-401 -440 0
-401 -441 0
-401 -442 0
-401 -443 0
-401 -444 0
-401 -445 0
-401 -446 0
-401 -447 0
-401 -448 0
-401 -449 0
-401 -450 0
-401 -451 0
-401 -452 0
-401 -453 0
-401 -454 0
-401 -455 0
-401 -456 0
-401 -457 0
-402 -403 0
-402 -404 0
-402 -405 0
-402 -406 0
-402 -407 0
-402 -408 0
-402 -409 0
-402 -410 0
-402 -411 0
-402 -412 0
-402 -413 0
-402 -414 0
-402 -415 0
-402 -416 0
-402 -417 0
-402 -418 0
-402 -419 0
-402 -420 0
-402 -421 0
-402 -422 0
-402 -423 0
-402 -424 0
-402 -425 0
-402 -426 0
-402 -427 0
-402 -428 0
-402 -429 0
-402 -430 0
-402 -431 0
-402 -432 0
-402 -433 0
-402 -434 0
-402 -435 0
-402 -436 0
-402 -437 0
-402 -438 0
-402 -439 0
-402 -440 0
-402 -441 0
-402 -442 0
-402 -443 0
-402 -444 0
-402 -445 0
-402 -446 0
-402 -447 0
-402 -448 0
-402 -449 0
-402 -450 0
-402 -451 0
-402 -452 0
-402 -453 0
-402 -454 0
-402 -455 0
-402 -456 0
-402 -457 0
-403 -404 0
-403 -405 0
-403 -406 0
-403 -407 0
-403 -408 0
-403 -409 0
-403 -410 0
-403 -411 0
-403 -412 0
-403 -413 0
-403 -414 0
-403 -415 0
-403 -416 0
-403 -417 0
-403 -418 0
-403 -419 0
-403 -420 0
-403 -421 0
-403 -422 0
-403 -423 0
-403 -424 0
-403 -425 0
-403 -426 0
-403 -427 0
-403 -428 0
-403 -429 0
-403 -430 0
-403 -431 0
-403 -432 0
-403 -433 0
-403 -434 0
-403 -435 0
-403 -436 0
-403 -437 0
-403 -438 0
-403 -439 0
-403 -440 0
-403 -441 0
-403 -442 0
-403 -443 0
-403 -444 0
-403 -445 0
-403 -446 0
-403 -447 0
-403 -448 0
-403 -449 0
-403 -450 0
-403 -451 0
-403 -452 0
-403 -453 0
-403 -454 0
-403 -455 0
-403 -456 0
-403 -457 0
-404 -405 0
-404 -406 0
-404 -407 0
-404 -408 0
-404 -409 0
-404 -410 0
-404 -411 0
-404 -412 0
-404 -413 0
-404 -414 0
-404 -415 0
-404 -416 0
-404 -417 0
-404 -418 0
-404 -419 0
-404 -420 0
-404 -421 0
-404 -422 0
-404 -423 0
-404 -424 0
-404 -425 0
-404 -426 0
-404 -427 0
-404 -428 0
-404 -429 0
-404 -430 0
-404 -431 0
-404 -432 0
-404 -433 0
-404 -434 0
-404 -435 0
-404 -436 0
-404 -437 0
-404 -438 0
-404 -439 0
-404 -440 0
-404 -441 0
-404 -442 0
-404 -443 0
-404 -444 0
-404 -445 0
-404 -446 0
-404 -447 0
-404 -448 0
-404 -449 0
-404 -450 0
-404 -451 0
-404 -452 0
-404 -453 0
-404 -454 0
-404 -455 0
-404 -456 0
-404 -457 0
-405 -406 0
-405 -407 0
-405 -408 0
-405 -409 0
-405 -410 0
-405 -411 0
-405 -412 0
-405 -413 0
-405 -414 0
-405 -415 0
-405 -416 0
-405 -417 0
-405 -418 0
-405 -419 0
-405 -420 0
-405 -421 0
-405 -422 0
-405 -423 0
-405 -424 0
-405 -425 0
-405 -426 0
-405 -427 0
-405 -428 0
-405 -429 0
-405 -430 0
-405 -431 0
-405 -432 0
-405 -433 0
-405 -434 0
-405 -435 0
-405 -436 0
-405 -437 0
-405 -438 0
-405 -439 0
-405 -440 0
-405 -441 0
-405 -442 0
-405 -443 0
-405 -444 0
-405 -445 0
-405 -446 0
-405 -447 0
-405 -448 0
-405 -449 0
-405 -450 0
-405 -451 0
-405 -452 0
-405 -453 0
-405 -454 0
-405 -455 0
-405 -456 0
-405 -457 0
-406 -407 0
-406 -408 0
-406 -409 0
-406 -410 0
-406 -411 0
-406 -412 0
-406 -413 0
-406 -414 0
-406 -415 0
-406 -416 0
-406 -417 0
-406 -418 0
-406 -419 0
-406 -420 0
-406 -421 0
-406 -422 0
-406 -423 0
-406 -424 0
-406 -425 0
-406 -426 0
-406 -427 0
-406 -428 0
-406 -429 0
-406 -430 0
-406 -431 0
-406 -432 0
-406 -433 0
-406 -434 0
-406 -435 0
-406 -436 0
-406 -437 0
-406 -438 0
-406 -439 0
-406 -440 0
-406 -441 0
-406 -442 0
-406 -443 0
-406 -444 0
-406 -445 0
-406 -446 0
-406 -447 0
-406 -448 0
-406 -449 0
-406 -450 0
-406 -451 0
-406 -452 0
-406 -453 0
-406 -454 0
-406 -455 0
-406 -456 0
-406 -457 0
-407 -408 0
-407 -409 0
-407 -410 0
-407 -411 0
-407 -412 0
-407 -413 0
-407 -414 0
-407 -415 0
-407 -416 0
-407 -417 0
-407 -418 0
-407 -419 0
-407 -420 0
-407 -421 0
-407 -422 0
-407 -423 0
-407 -424 0
-407 -425 0
-407 -426 0
-407 -427 0
-407 -428 0
-407 -429 0
-407 -430 0
-407 -431 0
-407 -432 0
-407 -433 0
-407 -434 0
-407 -435 0
-407 -436 0
-407 -437 0
-407 -438 0
-407 -439 0
-407 -440 0
-407 -441 0
-407 -442 0
-407 -443 0
-407 -444 0
-407 -445 0
-407 -446 0
-407 -447 0
-407 -448 0
-407 -449 0
-407 -450 0
-407 -451 0
-407 -452 0
-407 -453 0
-407 -454 0
-407 -455 0
-407 -456 0
-407 -457 0
-408 -409 0
-408 -410 0
-408 -411 0
-408 -412 0
-408 -413 0
-408 -414 0
-408 -415 0
-408 -416 0
-408 -417 0
-408 -418 0
-408 -419 0
-408 -420 0
-408 -421 0
-408 -422 0
-408 -423 0
-408 -424 0
-408 -425 0
-408 -426 0
-408 -427 0
-408 -428 0
-408 -429 0
-408 -430 0
-408 -431 0
-408 -432 0
-408 -433 0
-408 -434 0
-408 -435 0
-408 -436 0
-408 -437 0
-408 -438 0
-408 -439 0
-408 -440 0
-408 -441 0
-408 -442 0
-408 -443 0
-408 -444 0
-408 -445 0
-408 -446 0
-408 -447 0
-408 -448 0
-408 -449 0
-408 -450 0
-408 -451 0
-408 -452 0
-408 -453 0
-408 -454 0
-408 -455 0
-408 -456 0
-408 -457 0
-409 -410 0
-409 -411 0
-409 -412 0
-409 -413 0
-409 -414 0
-409 -415 0
-409 -416 0
-409 -417 0
-409 -418 0
-409 -419 0
-409 -420 0
-409 -421 0
-409 -422 0
-409 -423 0
-409 -424 0
-409 -425 0
-409 -426 0
-409 -427 0
-409 -428 0
-409 -429 0
-409 -430 0
-409 -431 0
-409 -432 0
-409 -433 0
-409 -434 0
-409 -435 0
-409 -436 0
-409 -437 0
-409 -438 0
-409 -439 0
-409 -440 0
-409 -441 0
-409 -442 0
-409 -443 0
-409 -444 0
-409 -445 0
-409 -446 0
-409 -447 0
-409 -448 0
-409 -449 0
-409 -450 0
-409 -451 0
-409 -452 0
-409 -453 0
-409 -454 0
-409 -455 0
-409 -456 0
-409 -457 0
-410 -411 0
-410 -412 0
-410 -413 0
-410 -414 0
-410 -415 0
-410 -416 0
-410 -417 0
-410 -418 0
-410 -419 0
-410 -420 0
-410 -421 0
-410 -422 0
-410 -423 0
-410 -424 0
-410 -425 0
-410 -426 0
-410 -427 0
-410 -428 0
-410 -429 0
-410 -430 0
-410 -431 0
-410 -432 0
-410 -433 0
-410 -434 0
-410 -435 0
-410 -436 0
-410 -437 0
-410 -438 0
-410 -439 0
-410 -440 0
-410 -441 0
-410 -442 0
-410 -443 0
-410 -444 0
-410 -445 0
-410 -446 0
-410 -447 0
-410 -448 0
-410 -449 0
-410 -450 0
-410 -451 0
-410 -452 0
-410 -453 0
-410 -454 0
-410 -455 0
-410 -456 0
-410 -457 0
-411 -412 0
-411 -413 0
-411 -414 0
-411 -415 0
-411 -416 0
-411 -417 0
-411 -418 0
-411 -419 0
-411 -420 0
-411 -421 0
-411 -422 0
-411 -423 0
-411 -424 0
-411 -425 0
-411 -426 0
-411 -427 0
-411 -428 0
-411 -429 0
-411 -430 0
-411 -431 0
-411 -432 0
-411 -433 0
-411 -434 0
-411 -435 0
-411 -436 0
-411 -437 0
-411 -438 0
-411 -439 0
-411 -440 0
-411 -441 0
-411 -442 0
-411 -443 0
-411 -444 0
-411 -445 0
-411 -446 0
-411 -447 0
-411 -448 0
-411 -449 0
-411 -450 0
-411 -451 0
-411 -452 0
-411 -453 0
-411 -454 0
-411 -455 0
-411 -456 0
-411 -457 0
-412 -413 0
-412 -414 0
-412 -415 0
-412 -416 0
-412 -417 0
-412 -418 0
-412 -419 0
-412 -420 0
-412 -421 0
-412 -422 0
-412 -423 0
-412 -424 0
-412 -425 0
-412 -426 0
-412 -427 0
-412 -428 0
-412 -429 0
-412 -430 0
-412 -431 0
-412 -432 0
-412 -433 0
-412 -434 0
-412 -435 0
-412 -436 0
-412 -437 0
-412 -438 0
-412 -439 0
-412 -440 0
-412 -441 0
-412 -442 0
-412 -443 0
-412 -444 0
-412 -445 0
-412 -446 0
-412 -447 0
-412 -448 0
-412 -449 0
-412 -450 0
-412 -451 0
-412 -452 0
-412 -453 0
-412 -454 0
-412 -455 0
-412 -456 0
-412 -457 0
-413 -414 0
-413 -415 0
-413 -416 0
-413 -417 0
-413 -418 0
-413 -419 0
-413 -420 0
-413 -421 0
-413 -422 0
-413 -423 0
-413 -424 0
-413 -425 0
-413 -426 0
-413 -427 0
-413 -428 0
-413 -429 0
-413 -430 0
-413 -431 0
-413 -432 0
-413 -433 0
-413 -434 0
-413 -435 0
-413 -436 0
-413 -437 0
-413 -438 0
-413 -439 0
-413 -440 0
-413 -441 0
-413 -442 0
-413 -443 0
-413 -444 0
-413 -445 0
-413 -446 0
-413 -447 0
-413 -448 0
-413 -449 0
-413 -450 0
-413 -451 0
-413 -452 0
-413 -453 0
-413 -454 0
-413 -455 0
-413 -456 0
-413 -457 0
-414 -415 0
-414 -416 0
-414 -417 0
-414 -418 0
-414 -419 0
-414 -420 0
-414 -421 0
-414 -422 0
-414 -423 0
-414 -424 0
-414 -425 0
-414 -426 0
-414 -427 0
-414 -428 0
-414 -429 0
-414 -430 0
-414 -431 0
-414 -432 0
-414 -433 0
-414 -434 0
-414 -435 0
-414 -436 0
-414 -437 0
-414 -438 0
-414 -439 0
-414 -440 0
-414 -441 0
-414 -442 0
-414 -443 0
-414 -444 0
-414 -445 0
-414 -446 0
-414 -447 0
-414 -448 0
-414 -449 0
-414 -450 0
-414 -451 0
-414 -452 0
-414 -453 0
-414 -454 0
-414 -455 0
-414 -456 0
-414 -457 0
-415 -416 0
-415 -417 0
-415 -418 0
-415 -419 0
-415 -420 0
-415 -421 0
-415 -422 0
-415 -423 0
-415 -424 0
-415 -425 0
-415 -426 0
-415 -427 0
-415 -428 0
-415 -429 0
-415 -430 0
-415 -431 0
-415 -432 0
-415 -433 0
-415 -434 0
-415 -435 0
-415 -436 0
-415 -437 0
-415 -438 0
-415 -439 0
-415 -440 0
-415 -441 0
-415 -442 0
-415 -443 0
-415 -444 0
-415 -445 0
-415 -446 0
-415 -447 0
-415 -448 0
-415 -449 0
-415 -450 0
-415 -451 0
-415 -452 0
-415 -453 0
-415 -454 0
-415 -455 0
-415 -456 0
-415 -457 0
-416 -417 0
-416 -418 0
-416 -419 0
-416 -420 0
-416 -421 0
-416 -422 0
-416 -423 0
-416 -424 0
-416 -425 0
-416 -426 0
-416 -427 0
-416 -428 0
-416 -429 0
-416 -430 0
-416 -431 0
-416 -432 0
-416 -433 0
-416 -434 0
-416 -435 0
-416 -436 0
-416 -437 0
-416 -438 0
-416 -439 0
-416 -440 0
-416 -441 0
-416 -442 0
-416 -443 0
-416 -444 0
-416 -445 0
-416 -446 0
-416 -447 0
-416 -448 0
-416 -449 0
-416 -450 0
-416 -451 0
-416 -452 0
-416 -453 0
-416 -454 0
-416 -455 0
-416 -456 0
-416 -457 0
-417 -418 0
-417 -419 0
-417 -420 0
-417 -421 0
-417 -422 0
-417 -423 0
-417 -424 0
-417 -425 0
-417 -426 0
-417 -427 0
-417 -428 0
-417 -429 0
-417 -430 0
-417 -431 0
-417 -432 0
-417 -433 0
-417 -434 0
-417 -435 0
-417 -436 0
-417 -437 0
-417 -438 0
-417 -439 0
-417 -440 0
-417 -441 0
-417 -442 0
-417 -443 0
-417 -444 0
-417 -445 0
-417 -446 0
-417 -447 0
-417 -448 0
-417 -449 0
-417 -450 0
-417 -451 0
-417 -452 0
-417 -453 0
-417 -454 0
-417 -455 0
-417 -456 0
-417 -457 0
-418 -419 0
-418 -420 0
-418 -421 0
-418 -422 0
-418 -423 0
-418 -424 0
-418 -425 0
-418 -426 0
-418 -427 0
-418 -428 0
-418 -429 0
-418 -430 0
-418 -431 0
-418 -432 0
-418 -433 0
-418 -434 0
-418 -435 0
-418 -436 0
-418 -437 0
-418 -438 0
-418 -439 0
-418 -440 0
-418 -441 0
-418 -442 0
-418 -443 0
-418 -444 0
-418 -445 0
-418 -446 0
-418 -447 0
-418 -448 0
-418 -449 0
-418 -450 0
-418 -451 0
-418 -452 0
-418 -453 0
-418 -454 0
-418 -455 0
-418 -456 0
-418 -457 0
-419 -420 0
-419 -421 0
-419 -422 0
-419 -423 0
-419 -424 0
-419 -425 0
-419 -426 0
-419 -427 0
-419 -428 0
-419 -429 0
-419 -430 0
-419 -431 0
-419 -432 0
-419 -433 0
-419 -434 0
-419 -435 0
-419 -436 0
-419 -437 0
-419 -438 0
-419 -439 0
-419 -440 0
-419 -441 0
-419 -442 0
-419 -443 0
-419 -444 0
-419 -445 0
-419 -446 0
-419 -447 0
-419 -448 0
-419 -449 0
-419 -450 0
-419 -451 0
-419 -452 0
-419 -453 0
-419 -454 0
-419 -455 0
-419 -456 0
-419 -457 0
-420 -421 0
-420 -422 0
-420 -423 0
-420 -424 0
-420 -425 0
-420 -426 0
-420 -427 0
-420 -428 0
-420 -429 0
-420 -430 0
-420 -431 0
-420 -432 0
-420 -433 0
-420 -434 0
-420 -435 0
-420 -436 0
-420 -437 0
-420 -438 0
-420 -439 0
-420 -440 0
-420 -441 0
-420 -442 0
-420 -443 0
-420 -444 0
-420 -445 0
-420 -446 0
-420 -447 0
-420 -448 0
-420 -449 0
-420 -450 0
-420 -451 0
-420 -452 0
-420 -453 0
-420 -454 0
-420 -455 0
-420 -456 0
-420 -457 0
-421 -422 0
-421 -423 0
-421 -424 0
-421 -425 0
-421 -426 0
-421 -427 0
-421 -428 0
-421 -429 0
-421 -430 0
-421 -431 0
-421 -432 0
-421 -433 0
-421 -434 0
-421 -435 0
-421 -436 0
-421 -437 0
-421 -438 0
-421 -439 0
-421 -440 0
-421 -441 0
-421 -442 0
-421 -443 0
-421 -444 0
-421 -445 0
-421 -446 0
-421 -447 0
-421 -448 0
-421 -449 0
-421 -450 0
-421 -451 0
-421 -452 0
-421 -453 0
-421 -454 0
-421 -455 0
-421 -456 0
-421 -457 0
-422 -423 0
-422 -424 0
-422 -425 0
-422 -426 0
-422 -427 0
-422 -428 0
-422 -429 0
-422 -430 0
-422 -431 0
-422 -432 0
-422 -433 0
-422 -434 0
-422 -435 0
-422 -436 0
-422 -437 0
-422 -438 0
-422 -439 0
-422 -440 0
-422 -441 0
-422 -442 0
-422 -443 0
-422 -444 0
-422 -445 0
-422 -446 0
-422 -447 0
-422 -448 0
-422 -449 0
-422 -450 0
-422 -451 0
-422 -452 0
-422 -453 0
-422 -454 0
-422 -455 0
-422 -456 0
-422 -457 0
-423 -424 0
-423 -425 0
-423 -426 0
-423 -427 0
-423 -428 0
-423 -429 0
-423 -430 0
-423 -431 0
-423 -432 0
-423 -433 0
-423 -434 0
-423 -435 0
-423 -436 0
-423 -437 0
-423 -438 0
-423 -439 0
-423 -440 0
-423 -441 0
-423 -442 0
-423 -443 0
-423 -444 0
-423 -445 0
-423 -446 0
-423 -447 0
-423 -448 0
-423 -449 0
-423 -450 0
-423 -451 0
-423 -452 0
-423 -453 0
-423 -454 0
-423 -455 0
-423 -456 0
-423 -457 0
-424 -425 0
-424 -426 0
-424 -427 0
-424 -428 0
-424 -429 0
-424 -430 0
-424 -431 0
-424 -432 0
-424 -433 0
-424 -434 0
-424 -435 0
-424 -436 0
-424 -437 0
-424 -438 0
-424 -439 0
-424 -440 0
-424 -441 0
-424 -442 0
-424 -443 0
-424 -444 0
-424 -445 0
-424 -446 0
-424 -447 0
-424 -448 0
-424 -449 0
-424 -450 0
-424 -451 0
-424 -452 0
-424 -453 0
-424 -454 0
-424 -455 0
-424 -456 0
-424 -457 0
-425 -426 0
-425 -427 0
-425 -428 0
-425 -429 0
-425 -430 0
-425 -431 0
-425 -432 0
-425 -433 0
-425 -434 0
-425 -435 0
-425 -436 0
-425 -437 0
-425 -438 0
-425 -439 0
-425 -440 0
-425 -441 0
-425 -442 0
-425 -443 0
-425 -444 0
-425 -445 0
-425 -446 0
-425 -447 0
-425 -448 0
-425 -449 0
-425 -450 0
-425 -451 0
-425 -452 0
-425 -453 0
-425 -454 0
-425 -455 0
-425 -456 0
-425 -457 0
-426 -427 0
-426 -428 0
-426 -429 0
-426 -430 0
-426 -431 0
-426 -432 0
-426 -433 0
-426 -434 0
-426 -435 0
-426 -436 0
-426 -437 0
-426 -438 0
-426 -439 0
-426 -440 0
-426 -441 0
-426 -442 0
-426 -443 0
-426 -444 0
-426 -445 0
-426 -446 0
-426 -447 0
-426 -448 0
-426 -449 0
-426 -450 0
-426 -451 0
-426 -452 0
-426 -453 0
-426 -454 0
-426 -455 0
-426 -456 0
-426 -457 0
-427 -428 0
-427 -429 0
-427 -430 0
-427 -431 0
-427 -432 0
-427 -433 0
-427 -434 0
-427 -435 0
-427 -436 0
-427 -437 0
-427 -438 0
-427 -439 0
-427 -440 0
-427 -441 0
-427 -442 0
-427 -443 0
-427 -444 0
-427 -445 0
-427 -446 0
-427 -447 0
-427 -448 0
-427 -449 0
-427 -450 0
-427 -451 0
-427 -452 0
-427 -453 0
-427 -454 0
-427 -455 0
-427 -456 0
-427 -457 0
-428 -429 0
-428 -430 0
-428 -431 0
-428 -432 0
-428 -433 0
-428 -434 0
-428 -435 0
-428 -436 0
-428 -437 0
-428 -438 0
-428 -439 0
-428 -440 0
-428 -441 0
-428 -442 0
-428 -443 0
-428 -444 0
-428 -445 0
-428 -446 0
-428 -447 0
-428 -448 0
-428 -449 0
-428 -450 0
-428 -451 0
-428 -452 0
-428 -453 0
-428 -454 0
-428 -455 0
-428 -456 0
-428 -457 0
-429 -430 0
-429 -431 0
-429 -432 0
-429 -433 0
-429 -434 0
-429 -435 0
-429 -436 0
-429 -437 0
-429 -438 0
-429 -439 0
-429 -440 0
-429 -441 0
-429 -442 0
-429 -443 0
-429 -444 0
-429 -445 0
-429 -446 0
-429 -447 0
-429 -448 0
-429 -449 0
-429 -450 0
-429 -451 0
-429 -452 0
-429 -453 0
-429 -454 0
-429 -455 0
-429 -456 0
-429 -457 0
-430 -431 0
-430 -432 0
-430 -433 0
-430 -434 0
-430 -435 0
-430 -436 0
-430 -437 0
-430 -438 0
-430 -439 0
-430 -440 0
-430 -441 0
-430 -442 0
-430 -443 0
-430 -444 0
-430 -445 0
-430 -446 0
-430 -447 0
-430 -448 0
-430 -449 0
-430 -450 0
-430 -451 0
-430 -452 0
-430 -453 0
-430 -454 0
-430 -455 0
-430 -456 0
-430 -457 0
-431 -432 0
-431 -433 0
-431 -434 0
-431 -435 0
-431 -436 0
-431 -437 0
-431 -438 0
-431 -439 0
-431 -440 0
-431 -441 0
-431 -442 0
-431 -443 0
-431 -444 0
-431 -445 0
-431 -446 0
-431 -447 0
-431 -448 0
-431 -449 0
-431 -450 0
-431 -451 0
-431 -452 0
-431 -453 0
-431 -454 0
-431 -455 0
-431 -456 0
-431 -457 0
-432 -433 0
-432 -434 0
-432 -435 0
-432 -436 0
-432 -437 0
-432 -438 0
-432 -439 0
-432 -440 0
-432 -441 0
-432 -442 0
-432 -443 0
-432 -444 0
-432 -445 0
-432 -446 0
-432 -447 0
-432 -448 0
-432 -449 0
-432 -450 0
-432 -451 0
-432 -452 0
-432 -453 0
-432 -454 0
-432 -455 0
-432 -456 0
-432 -457 0
-433 -434 0
-433 -435 0
-433 -436 0
-433 -437 0
-433 -438 0
-433 -439 0
-433 -440 0
-433 -441 0
-433 -442 0
-433 -443 0
-433 -444 0
-433 -445 0
-433 -446 0
-433 -447 0
-433 -448 0
-433 -449 0
-433 -450 0
-433 -451 0
-433 -452 0
-433 -453 0
-433 -454 0
-433 -455 0
-433 -456 0
-433 -457 0
-434 -435 0
-434 -436 0
-434 -437 0
-434 -438 0
-434 -439 0
-434 -440 0
-434 -441 0
-434 -442 0
-434 -443 0
-434 -444 0
-434 -445 0
-434 -446 0
-434 -447 0
-434 -448 0
-434 -449 0
-434 -450 0
-434 -451 0
-434 -452 0
-434 -453 0
-434 -454 0
-434 -455 0
-434 -456 0
-434 -457 0
-435 -436 0
-435 -437 0
-435 -438 0
-435 -439 0
-435 -440 0
-435 -441 0
-435 -442 0
-435 -443 0
-435 -444 0
-435 -445 0
-435 -446 0
-435 -447 0
-435 -448 0
-435 -449 0
-435 -450 0
-435 -451 0
-435 -452 0
-435 -453 0
-435 -454 0
-435 -455 0
-435 -456 0
-435 -457 0
-436 -437 0
-436 -438 0
-436 -439 0
-436 -440 0
-436 -441 0
-436 -442 0
-436 -443 0
-436 -444 0
-436 -445 0
-436 -446 0
-436 -447 0
-436 -448 0
-436 -449 0
-436 -450 0
-436 -451 0
-436 -452 0
-436 -453 0
-436 -454 0
-436 -455 0
-436 -456 0
-436 -457 0
-437 -438 0
-437 -439 0
-437 -440 0
-437 -441 0
-437 -442 0
-437 -443 0
-437 -444 0
-437 -445 0
-437 -446 0
-437 -447 0
-437 -448 0
-437 -449 0
-437 -450 0
-437 -451 0
-437 -452 0
-437 -453 0
-437 -454 0
-437 -455 0
-437 -456 0
-437 -457 0
-438 -439 0
-438 -440 0
-438 -441 0
-438 -442 0
-438 -443 0
-438 -444 0
-438 -445 0
-438 -446 0
-438 -447 0
-438 -448 0
-438 -449 0
-438 -450 0
-438 -451 0
-438 -452 0
-438 -453 0
-438 -454 0
-438 -455 0
-438 -456 0
-438 -457 0
-439 -440 0
-439 -441 0
-439 -442 0
-439 -443 0
-439 -444 0
-439 -445 0
-439 -446 0
-439 -447 0
-439 -448 0
-439 -449 0
-439 -450 0
-439 -451 0
-439 -452 0
-439 -453 0
-439 -454 0
-439 -455 0
-439 -456 0
-439 -457 0
-440 -441 0
-440 -442 0
-440 -443 0
-440 -444 0
-440 -445 0
-440 -446 0
-440 -447 0
-440 -448 0
-440 -449 0
-440 -450 0
-440 -451 0
-440 -452 0
-440 -453 0
-440 -454 0
-440 -455 0
-440 -456 0
-440 -457 0
-441 -442 0
-441 -443 0
-441 -444 0
-441 -445 0
-441 -446 0
-441 -447 0
-441 -448 0
-441 -449 0
-441 -450 0
-441 -451 0
-441 -452 0
-441 -453 0
-441 -454 0
-441 -455 0
-441 -456 0
-441 -457 0
-442 -443 0
-442 -444 0
-442 -445 0
-442 -446 0
-442 -447 0
-442 -448 0
-442 -449 0
-442 -450 0
-442 -451 0
-442 -452 0
-442 -453 0
-442 -454 0
-442 -455 0
-442 -456 0
-442 -457 0
-443 -444 0
-443 -445 0
-443 -446 0
-443 -447 0
-443 -448 0
-443 -449 0
-443 -450 0
-443 -451 0
-443 -452 0
-443 -453 0
-443 -454 0
-443 -455 0
-443 -456 0
-443 -457 0
-444 -445 0
-444 -446 0
-444 -447 0
-444 -448 0
-444 -449 0
-444 -450 0
-444 -451 0
-444 -452 0
-444 -453 0
-444 -454 0
-444 -455 0
-444 -456 0
-444 -457 0
-445 -446 0
-445 -447 0
-445 -448 0
-445 -449 0
-445 -450 0
-445 -451 0
-445 -452 0
-445 -453 0
-445 -454 0
-445 -455 0
-445 -456 0
-445 -457 0
-446 -447 0
-446 -448 0
-446 -449 0
-446 -450 0
-446 -451 0
-446 -452 0
-446 -453 0
-446 -454 0
-446 -455 0
-446 -456 0
-446 -457 0
-447 -448 0
-447 -449 0
-447 -450 0
-447 -451 0
-447 -452 0
-447 -453 0
-447 -454 0
-447 -455 0
-447 -456 0
-447 -457 0
-448 -449 0
-448 -450 0
-448 -451 0
-448 -452 0
-448 -453 0
-448 -454 0
-448 -455 0
-448 -456 0
-448 -457 0
-449 -450 0
-449 -451 0
-449 -452 0
-449 -453 0
-449 -454 0
-449 -455 0
-449 -456 0
-449 -457 0
-450 -451 0
-450 -452 0
-450 -453 0
-450 -454 0
-450 -455 0
-450 -456 0
-450 -457 0
-451 -452 0
-451 -453 0
-451 -454 0
-451 -455 0
-451 -456 0
-451 -457 0
-452 -453 0
-452 -454 0
-452 -455 0
-452 -456 0
-452 -457 0
-453 -454 0
-453 -455 0
-453 -456 0
-453 -457 0
-454 -455 0
-454 -456 0
-454 -457 0
-455 -456 0
-455 -457 0
-456 -457 0
458 459 460 461 462 463 464 465 466 467 468 469 470 471 472 473 474 475 476 477 478 479 480 481 482 483 484 485 486 487 488 489 490 491 492 493 494 495 496 497 498 499 500 501 502 503 504 505 506 507 508 509 510 511 512 513 514 515 516 517 518 519 520 521 522 523 524 525 526 527 528 529 530 531 532 533 534 535 536 537 538 539 540 541 0
-458 -459 0
-458 -460 0
-458 -461 0
-458 -462 0
-458 -463 0
-458 -464 0
-458 -465 0
-458 -466 0
-458 -467 0
-458 -468 0
-458 -469 0
-458 -470 0
-458 -471 0
-458 -472 0
-458 -473 0
-458 -474 0
-458 -475 0
-458 -476 0
-458 -477 0
-458 -478 0
-458 -479 0
-458 -480 0
-458 -481 0
-458 -482 0
-458 -483 0
-458 -484 0
-458 -485 0
-458 -486 0
-458 -487 0
-458 -488 0
-458 -489 0
-458 -490 0
-458 -491 0
-458 -492 0
-458 -493 0
-458 -494 0
-458 -495 0
-458 -496 0
-458 -497 0
-458 -498 0
-458 -499 0
-458 -500 0
-458 -501 0
-458 -502 0
-458 -503 0
-458 -504 0
-458 -505 0
-458 -506 0
-458 -507 0
-458 -508 0
-458 -509 0
-458 -510 0
-458 -511 0
-458 -512 0
-458 -513 0
-458 -514 0
-458 -515 0
-458 -516 0
-458 -517 0
-458 -518 0
-458 -519 0
-458 -520 0
-458 -521 0
-458 -522 0
-458 -523 0
-458 -524 0
-458 -525 0
-458 -526 0
-458 -527 0
-458 -528 0
-458 -529 0
-458 -530 0
-458 -531 0
-458 -532 0
-458 -533 0
-458 -534 0
-458 -535 0
-458 -536 0
-458 -537 0
-458 -538 0
-458 -539 0
-458 -540 0
-458 -541 0
-459 -460 0
-459 -461 0
-459 -462 0
-459 -463 0
-459 -464 0
-459 -465 0
-459 -466 0
-459 -467 0
-459 -468 0
-459 -469 0
-459 -470 0
-459 -471 0
-459 -472 0
-459 -473 0
-459 -474 0
-459 -475 0
-459 -476 0
-459 -477 0
-459 -478 0
-459 -479 0
-459 -480 0
-459 -481 0
-459 -482 0
-459 -483 0
-459 -484 0
-459 -485 0
-459 -486 0
-459 -487 0
-459 -488 0
-459 -489 0
-459 -490 0
-459 -491 0
-459 -492 0
-459 -493 0
-459 -494 0
-459 -495 0
-459 -496 0
-459 -497 0
-459 -498 0
-459 -499 0
-459 -500 0
-459 -501 0
-459 -502 0
-459 -503 0
-459 -504 0
-459 -505 0
-459 -506 0
-459 -507 0
-459 -508 0
-459 -509 0
-459 -510 0
-459 -511 0
-459 -512 0
-459 -513 0
-459 -514 0
-459 -515 0
-459 -516 0
-459 -517 0
-459 -518 0
-459 -519 0
-459 -520 0
-459 -521 0
-459 -522 0
-459 -523 0
-459 -524 0
-459 -525 0
-459 -526 0
-459 -527 0
-459 -528 0
-459 -529 0
-459 -530 0
-459 -531 0
-459 -532 0
-459 -533 0
-459 -534 0
-459 -535 0
-459 -536 0
-459 -537 0
-459 -538 0
-459 -539 0
-459 -540 0
-459 -541 0
-460 -461 0
-460 -462 0
-460 -463 0
-460 -464 0
-460 -465 0
-460 -466 0
-460 -467 0
-460 -468 0
-460 -469 0
-460 -470 0
-460 -471 0
-460 -472 0
-460 -473 0
-460 -474 0
-460 -475 0
-460 -476 0
-460 -477 0
-460 -478 0
-460 -479 0
-460 -480 0
-460 -481 0
-460 -482 0
-460 -483 0
-460 -484 0
-460 -485 0
-460 -486 0
-460 -487 0
-460 -488 0
-460 -489 0
-460 -490 0
-460 -491 0
-460 -492 0
-460 -493 0
-460 -494 0
-460 -495 0
-460 -496 0
-460 -497 0
-460 -498 0
-460 -499 0
-460 -500 0
-460 -501 0
-460 -502 0
-460 -503 0
-460 -504 0
-460 -505 0
-460 -506 0
-460 -507 0
-460 -508 0
-460 -509 0
-460 -510 0
-460 -511 0
-460 -512 0
-460 -513 0
-460 -514 0
-460 -515 0
-460 -516 0
-460 -517 0
-460 -518 0
-460 -519 0
-460 -520 0
-460 -521 0
-460 -522 0
-460 -523 0
-460 -524 0
-460 -525 0
-460 -526 0
-460 -527 0
-460 -528 0
-460 -529 0
-460 -530 0
-460 -531 0
-460 -532 0
-460 -533 0
-460 -534 0
-460 -535 0
-460 -536 0
-460 -537 0
-460 -538 0
-460 -539 0
-460 -540 0
-460 -541 0
-461 -462 0
-461 -463 0
-461 -464 0
-461 -465 0
-461 -466 0
-461 -467 0
-461 -468 0
-461 -469 0
-461 -470 0
-461 -471 0
-461 -472 0
-461 -473 0
-461 -474 0
-461 -475 0
-461 -476 0
-461 -477 0
-461 -478 0
-461 -479 0
-461 -480 0
-461 -481 0
-461 -482 0
-461 -483 0
-461 -484 0
-461 -485 0
-461 -486 0
-461 -487 0
-461 -488 0
-461 -489 0
-461 -490 0
-461 -491 0
-461 -492 0
-461 -493 0
-461 -494 0
-461 -495 0
-461 -496 0
-461 -497 0
-461 -498 0
-461 -499 0
-461 -500 0
-461 -501 0
-461 -502 0
-461 -503 0
-461 -504 0
-461 -505 0
-461 -506 0
-461 -507 0
-461 -508 0
-461 -509 0
-461 -510 0
-461 -511 0
-461 -512 0
-461 -513 0
-461 -514 0
-461 -515 0
-461 -516 0
-461 -517 0
-461 -518 0
-461 -519 0
-461 -520 0
-461 -521 0
-461 -522 0
-461 -523 0
-461 -524 0
-461 -525 0
-461 -526 0
-461 -527 0
-461 -528 0
-461 -529 0
-461 -530 0
-461 -531 0
-461 -532 0
-461 -533 0
-461 -534 0
-461 -535 0
-461 -536 0
-461 -537 0
-461 -538 0
-461 -539 0
-461 -540 0
-461 -541 0
-462 -463 0
-462 -464 0
-462 -465 0
-462 -466 0
-462 -467 0
-462 -468 0
-462 -469 0
-462 -470 0
-462 -471 0
-462 -472 0
-462 -473 0
-462 -474 0
-462 -475 0
-462 -476 0
-462 -477 0
-462 -478 0
-462 -479 0
-462 -480 0
-462 -481 0
-462 -482 0
-462 -483 0
-462 -484 0
-462 -485 0
-462 -486 0
-462 -487 0
-462 -488 0
-462 -489 0
-462 -490 0
-462 -491 0
-462 -492 0
-462 -493 0
-462 -494 0
-462 -495 0
-462 -496 0
-462 -497 0
-462 -498 0
-462 -499 0
-462 -500 0
-462 -501 0
-462 -502 0
-462 -503 0
-462 -504 0
-462 -505 0
-462 -506 0
-462 -507 0
-462 -508 0
-462 -509 0
-462 -510 0
-462 -511 0
-462 -512 0
-462 -513 0
-462 -514 0
-462 -515 0
-462 -516 0
-462 -517 0
-462 -518 0
-462 -519 0
-462 -520 0
-462 -521 0
-462 -522 0
-462 -523 0
-462 -524 0
-462 -525 0
-462 -526 0
-462 -527 0
-462 -528 0
-462 -529 0
-462 -530 0
-462 -531 0
-462 -532 0
-462 -533 0
-462 -534 0
-462 -535 0
-462 -536 0
-462 -537 0
-462 -538 0
-462 -539 0
-462 -540 0
-462 -541 0
-463 -464 0
-463 -465 0
-463 -466 0
-463 -467 0
-463 -468 0
-463 -469 0
-463 -470 0
-463 -471 0
-463 -472 0
-463 -473 0
-463 -474 0
-463 -475 0
-463 -476 0
-463 -477 0
-463 -478 0
-463 -479 0
-463 -480 0
-463 -481 0
-463 -482 0
-463 -483 0
-463 -484 0
-463 -485 0
-463 -486 0
-463 -487 0
-463 -488 0
-463 -489 0
-463 -490 0
-463 -491 0
-463 -492 0
-463 -493 0
-463 -494 0
-463 -495 0
-463 -496 0
-463 -497 0
-463 -498 0
-463 -499 0
-463 -500 0
-463 -501 0
-463 -502 0
-463 -503 0
-463 -504 0
-463 -505 0
-463 -506 0
-463 -507 0
-463 -508 0
-463 -509 0
-463 -510 0
-463 -511 0
-463 -512 0
-463 -513 0
-463 -514 0
-463 -515 0
-463 -516 0
-463 -517 0
-463 -518 0
-463 -519 0
-463 -520 0
-463 -521 0
-463 -522 0
-463 -523 0
-463 -524 0
-463 -525 0
-463 -526 0
-463 -527 0
-463 -528 0
-463 -529 0
-463 -530 0
-463 -531 0
-463 -532 0
-463 -533 0
-463 -534 0
-463 -535 0
-463 -536 0
-463 -537 0
-463 -538 0
-463 -539 0
-463 -540 0
-463 -541 0
-464 -465 0
-464 -466 0
-464 -467 0
-464 -468 0
-464 -469 0
-464 -470 0
-464 -471 0
-464 -472 0
-464 -473 0
-464 -474 0
-464 -475 0
-464 -476 0
-464 -477 0
-464 -478 0
-464 -479 0
-464 -480 0
-464 -481 0
-464 -482 0
-464 -483 0
-464 -484 0
-464 -485 0
-464 -486 0
-464 -487 0
-464 -488 0
-464 -489 0
-464 -490 0
-464 -491 0
-464 -492 0
-464 -493 0
-464 -494 0
-464 -495 0
-464 -496 0
-464 -497 0
-464 -498 0
-464 -499 0
-464 -500 0
-464 -501 0
-464 -502 0
-464 -503 0
-464 -504 0
-464 -505 0
-464 -506 0
-464 -507 0
-464 -508 0
-464 -509 0
-464 -510 0
-464 -511 0
-464 -512 0
-464 -513 0
-464 -514 0
-464 -515 0
-464 -516 0
-464 -517 0
-464 -518 0
-464 -519 0
-464 -520 0
-464 -521 0
-464 -522 0
-464 -523 0
-464 -524 0
-464 -525 0
-464 -526 0
-464 -527 0
-464 -528 0
-464 -529 0
-464 -530 0
-464 -531 0
-464 -532 0
-464 -533 0
-464 -534 0
-464 -535 0
-464 -536 0
-464 -537 0
-464 -538 0
-464 -539 0
-464 -540 0
-464 -541 0
-465 -466 0
-465 -467 0
-465 -468 0
-465 -469 0
-465 -470 0
-465 -471 0
-465 -472 0
-465 -473 0
-465 -474 0
-465 -475 0
-465 -476 0
-465 -477 0
-465 -478 0
-465 -479 0
-465 -480 0
-465 -481 0
-465 -482 0
-465 -483 0
-465 -484 0
-465 -485 0
-465 -486 0
-465 -487 0
-465 -488 0
-465 -489 0
-465 -490 0
-465 -491 0
-465 -492 0
-465 -493 0
-465 -494 0
-465 -495 0
-465 -496 0
-465 -497 0
-465 -498 0
-465 -499 0
-465 -500 0
-465 -501 0
-465 -502 0
-465 -503 0
-465 -504 0
-465 -505 0
-465 -506 0
-465 -507 0
-465 -508 0
-465 -509 0
-465 -510 0
-465 -511 0
-465 -512 0
-465 -513 0
-465 -514 0
-465 -515 0
-465 -516 0
-465 -517 0
-465 -518 0
-465 -519 0
-465 -520 0
-465 -521 0
-465 -522 0
-465 -523 0
-465 -524 0
-465 -525 0
-465 -526 0
-465 -527 0
-465 -528 0
-465 -529 0
-465 -530 0
-465 -531 0
-465 -532 0
-465 -533 0
-465 -534 0
-465 -535 0
-465 -536 0
-465 -537 0
-465 -538 0
-465 -539 0
-465 -540 0
-465 -541 0
-466 -467 0
-466 -468 0
-466 -469 0
-466 -470 0
-466 -471 0
-466 -472 0
-466 -473 0
-466 -474 0
-466 -475 0
-466 -476 0
-466 -477 0
-466 -478 0
-466 -479 0
-466 -480 0
-466 -481 0
-466 -482 0
-466 -483 0
-466 -484 0
-466 -485 0
-466 -486 0
-466 -487 0
-466 -488 0
-466 -489 0
-466 -490 0
-466 -491 0
-466 -492 0
-466 -493 0
-466 -494 0
-466 -495 0
-466 -496 0
-466 -497 0
-466 -498 0
-466 -499 0
-466 -500 0
-466 -501 0
-466 -502 0
-466 -503 0
-466 -504 0
-466 -505 0
-466 -506 0
-466 -507 0
-466 -508 0
-466 -509 0
-466 -510 0
-466 -511 0
-466 -512 0
-466 -513 0
-466 -514 0
-466 -515 0
-466 -516 0
-466 -517 0
-466 -518 0
-466 -519 0
-466 -520 0
-466 -521 0
-466 -522 0
-466 -523 0
-466 -524 0
-466 -525 0
-466 -526 0
-466 -527 0
-466 -528 0
-466 -529 0
-466 -530 0
-466 -531 0
-466 -532 0
-466 -533 0
-466 -534 0
-466 -535 0
-466 -536 0
-466 -537 0
-466 -538 0
-466 -539 0
-466 -540 0
-466 -541 0
-467 -468 0
-467 -469 0
-467 -470 0
-467 -471 0
-467 -472 0
-467 -473 0
-467 -474 0
-467 -475 0
-467 -476 0
-467 -477 0
-467 -478 0
-467 -479 0
-467 -480 0
-467 -481 0
-467 -482 0
-467 -483 0
-467 -484 0
-467 -485 0
-467 -486 0
-467 -487 0
-467 -488 0
-467 -489 0
-467 -490 0
-467 -491 0
-467 -492 0
-467 -493 0
-467 -494 0
-467 -495 0
-467 -496 0
-467 -497 0
-467 -498 0
-467 -499 0
-467 -500 0
-467 -501 0
-467 -502 0
-467 -503 0
-467 -504 0
-467 -505 0
-467 -506 0
-467 -507 0
-467 -508 0
-467 -509 0
-467 -510 0
-467 -511 0
-467 -512 0
-467 -513 0
-467 -514 0
-467 -515 0
-467 -516 0
-467 -517 0
-467 -518 0
-467 -519 0
-467 -520 0
-467 -521 0
-467 -522 0
-467 -523 0
-467 -524 0
-467 -525 0
-467 -526 0
-467 -527 0
-467 -528 0
-467 -529 0
-467 -530 0
-467 -531 0
-467 -532 0
-467 -533 0
-467 -534 0
-467 -535 0
-467 -536 0
-467 -537 0
-467 -538 0
-467 -539 0
-467 -540 0
-467 -541 0
-468 -469 0
-468 -470 0
-468 -471 0
-468 -472 0
-468 -473 0
-468 -474 0
-468 -475 0
-468 -476 0
-468 -477 0
-468 -478 0
-468 -479 0
-468 -480 0
-468 -481 0
-468 -482 0
-468 -483 0
-468 -484 0
-468 -485 0
-468 -486 0
-468 -487 0
-468 -488 0
-468 -489 0
-468 -490 0
-468 -491 0
-468 -492 0
-468 -493 0
-468 -494 0
-468 -495 0
-468 -496 0
-468 -497 0
-468 -498 0
-468 -499 0
-468 -500 0
-468 -501 0
-468 -502 0
-468 -503 0
-468 -504 0
-468 -505 0
-468 -506 0
-468 -507 0
-468 -508 0
-468 -509 0
-468 -510 0
-468 -511 0
-468 -512 0
-468 -513 0
-468 -514 0
-468 -515 0
-468 -516 0
-468 -517 0
-468 -518 0
-468 -519 0
-468 -520 0
-468 -521 0
-468 -522 0
-468 -523 0
-468 -524 0
-468 -525 0
-468 -526 0
-468 -527 0
-468 -528 0
-468 -529 0
-468 -530 0
-468 -531 0
-468 -532 0
-468 -533 0
-468 -534 0
-468 -535 0
-468 -536 0
-468 -537 0
-468 -538 0
-468 -539 0
-468 -540 0
-468 -541 0
-469 -470 0
-469 -471 0
-469 -472 0
-469 -473 0
-469 -474 0
-469 -475 0
-469 -476 0
-469 -477 0
-469 -478 0
-469 -479 0
-469 -480 0
-469 -481 0
-469 -482 0
-469 -483 0
-469 -484 0
-469 -485 0
-469 -486 0
-469 -487 0
-469 -488 0
-469 -489 0
-469 -490 0
-469 -491 0
-469 -492 0
-469 -493 0
-469 -494 0
-469 -495 0
-469 -496 0
-469 -497 0
-469 -498 0
-469 -499 0
-469 -500 0
-469 -501 0
-469 -502 0
-469 -503 0
-469 -504 0
-469 -505 0
-469 -506 0
-469 -507 0
-469 -508 0
-469 -509 0
-469 -510 0
-469 -511 0
-469 -512 0
-469 -513 0
-469 -514 0
-469 -515 0
-469 -516 0
-469 -517 0
-469 -518 0
-469 -519 0
-469 -520 0
-469 -521 0
-469 -522 0
-469 -523 0
-469 -524 0
-469 -525 0
-469 -526 0
-469 -527 0
-469 -528 0
-469 -529 0
-469 -530 0
-469 -531 0
-469 -532 0
-469 -533 0
-469 -534 0
-469 -535 0
-469 -536 0
-469 -537 0
-469 -538 0
-469 -539 0
-469 -540 0
-469 -541 0
-470 -471 0
-470 -472 0
-470 -473 0
-470 -474 0
-470 -475 0
-470 -476 0
-470 -477 0
-470 -478 0
-470 -479 0
-470 -480 0
-470 -481 0
-470 -482 0
-470 -483 0
-470 -484 0
-470 -485 0
-470 -486 0
-470 -487 0
-470 -488 0
-470 -489 0
-470 -490 0
-470 -491 0
-470 -492 0
-470 -493 0
-470 -494 0
-470 -495 0
-470 -496 0
-470 -497 0
-470 -498 0
-470 -499 0
-470 -500 0
-470 -501 0
-470 -502 0
-470 -503 0
-470 -504 0
-470 -505 0
-470 -506 0
-470 -507 0
-470 -508 0
-470 -509 0
-470 -510 0
-470 -511 0
-470 -512 0
-470 -513 0
-470 -514 0
-470 -515 0
-470 -516 0
-470 -517 0
-470 -518 0
-470 -519 0
-470 -520 0
-470 -521 0
-470 -522 0
-470 -523 0
-470 -524 0
-470 -525 0
-470 -526 0
-470 -527 0
-470 -528 0
-470 -529 0
-470 -530 0
-470 -531 0
-470 -532 0
-470 -533 0
-470 -534 0
-470 -535 0
-470 -536 0
-470 -537 0
-470 -538 0
-470 -539 0
-470 -540 0
-470 -541 0
-471 -472 0
-471 -473 0
-471 -474 0
-471 -475 0
-471 -476 0
-471 -477 0
-471 -478 0
-471 -479 0
-471 -480 0
-471 -481 0
-471 -482 0
-471 -483 0
-471 -484 0
-471 -485 0
-471 -486 0
-471 -487 0
-471 -488 0
-471 -489 0
-471 -490 0
-471 -491 0
-471 -492 0
-471 -493 0
-471 -494 0
-471 -495 0
-471 -496 0
-471 -497 0
-471 -498 0
-471 -499 0
-471 -500 0
-471 -501 0
-471 -502 0
-471 -503 0
-471 -504 0
-471 -505 0
-471 -506 0
-471 -507 0
-471 -508 0
-471 -509 0
-471 -510 0
-471 -511 0
-471 -512 0
-471 -513 0
-471 -514 0
-471 -515 0
-471 -516 0
-471 -517 0
-471 -518 0
-471 -519 0
-471 -520 0
-471 -521 0
-471 -522 0
-471 -523 0
-471 -524 0
-471 -525 0
-471 -526 0
-471 -527 0
-471 -528 0
-471 -529 0
-471 -530 0
-471 -531 0
-471 -532 0
-471 -533 0
-471 -534 0
-471 -535 0
-471 -536 0
-471 -537 0
-471 -538 0
-471 -539 0
-471 -540 0
-471 -541 0
-472 -473 0
-472 -474 0
-472 -475 0
-472 -476 0
-472 -477 0
-472 -478 0
-472 -479 0
-472 -480 0
-472 -481 0
-472 -482 0
-472 -483 0
-472 -484 0
-472 -485 0
-472 -486 0
-472 -487 0
-472 -488 0
-472 -489 0
-472 -490 0
-472 -491 0
-472 -492 0
-472 -493 0
-472 -494 0
-472 -495 0
-472 -496 0
-472 -497 0
-472 -498 0
-472 -499 0
-472 -500 0
-472 -501 0
-472 -502 0
-472 -503 0
-472 -504 0
-472 -505 0
-472 -506 0
-472 -507 0
-472 -508 0
-472 -509 0
-472 -510 0
-472 -511 0
-472 -512 0
-472 -513 0
-472 -514 0
-472 -515 0
-472 -516 0
-472 -517 0
-472 -518 0
-472 -519 0
-472 -520 0
-472 -521 0
-472 -522 0
-472 -523 0
-472 -524 0
-472 -525 0
-472 -526 0
-472 -527 0
-472 -528 0
-472 -529 0
-472 -530 0
-472 -531 0
-472 -532 0
-472 -533 0
-472 -534 0
-472 -535 0
-472 -536 0
-472 -537 0
-472 -538 0
-472 -539 0
-472 -540 0
-472 -541 0
-473 -474 0
-473 -475 0
-473 -476 0
-473 -477 0
-473 -478 0
-473 -479 0
-473 -480 0
-473 -481 0
-473 -482 0
-473 -483 0
-473 -484 0
-473 -485 0
-473 -486 0
-473 -487 0
-473 -488 0
-473 -489 0
-473 -490 0
-473 -491 0
-473 -492 0
-473 -493 0
-473 -494 0
-473 -495 0
-473 -496 0
-473 -497 0
-473 -498 0
-473 -499 0
-473 -500 0
-473 -501 0
-473 -502 0
-473 -503 0
-473 -504 0
-473 -505 0
-473 -506 0
-473 -507 0
-473 -508 0
-473 -509 0
-473 -510 0
-473 -511 0
-473 -512 0
-473 -513 0
-473 -514 0
-473 -515 0
-473 -516 0
-473 -517 0
-473 -518 0
-473 -519 0
-473 -520 0
-473 -521 0
-473 -522 0
-473 -523 0
-473 -524 0
-473 -525 0
-473 -526 0
-473 -527 0
-473 -528 0
-473 -529 0
-473 -530 0
-473 -531 0
-473 -532 0
-473 -533 0
-473 -534 0
-473 -535 0
-473 -536 0
-473 -537 0
-473 -538 0
-473 -539 0
-473 -540 0
-473 -541 0
-474 -475 0
-474 -476 0
-474 -477 0
-474 -478 0
-474 -479 0
-474 -480 0
-474 -481 0
-474 -482 0
-474 -483 0
-474 -484 0
-474 -485 0
-474 -486 0
-474 -487 0
-474 -488 0
-474 -489 0
-474 -490 0
-474 -491 0
-474 -492 0
-474 -493 0
-474 -494 0
-474 -495 0
-474 -496 0
-474 -497 0
-474 -498 0
-474 -499 0
-474 -500 0
-474 -501 0
-474 -502 0
-474 -503 0
-474 -504 0
-474 -505 0
-474 -506 0
-474 -507 0
-474 -508 0
-474 -509 0
-474 -510 0
-474 -511 0
-474 -512 0
-474 -513 0
-474 -514 0
-474 -515 0
-474 -516 0
-474 -517 0
-474 -518 0
-474 -519 0
-474 -520 0
-474 -521 0
-474 -522 0
-474 -523 0
-474 -524 0
-474 -525 0
-474 -526 0
-474 -527 0
-474 -528 0
-474 -529 0
-474 -530 0
-474 -531 0
-474 -532 0
-474 -533 0
-474 -534 0
-474 -535 0
-474 -536 0
-474 -537 0
-474 -538 0
-474 -539 0
-474 -540 0
-474 -541 0
-475 -476 0
-475 -477 0
-475 -478 0
-475 -479 0
-475 -480 0
-475 -481 0
-475 -482 0
-475 -483 0
-475 -484 0
-475 -485 0
-475 -486 0
-475 -487 0
-475 -488 0
-475 -489 0
-475 -490 0
-475 -491 0
-475 -492 0
-475 -493 0
-475 -494 0
-475 -495 0
-475 -496 0
-475 -497 0
-475 -498 0
-475 -499 0
-475 -500 0
-475 -501 0
-475 -502 0
-475 -503 0
-475 -504 0
-475 -505 0
-475 -506 0
-475 -507 0
-475 -508 0
-475 -509 0
-475 -510 0
-475 -511 0
-475 -512 0
-475 -513 0
-475 -514 0
-475 -515 0
-475 -516 0
-475 -517 0
-475 -518 0
-475 -519 0
-475 -520 0
-475 -521 0
-475 -522 0
-475 -523 0
-475 -524 0
-475 -525 0
-475 -526 0
-475 -527 0
-475 -528 0
-475 -529 0
-475 -530 0
-475 -531 0
-475 -532 0
-475 -533 0
-475 -534 0
-475 -535 0
-475 -536 0
-475 -537 0
-475 -538 0
-475 -539 0
-475 -540 0
-475 -541 0
-476 -477 0
-476 -478 0
-476 -479 0
-476 -480 0
-476 -481 0
-476 -482 0
-476 -483 0
-476 -484 0
-476 -485 0
-476 -486 0
-476 -487 0
-476 -488 0
-476 -489 0
-476 -490 0
-476 -491 0
-476 -492 0
-476 -493 0
-476 -494 0
-476 -495 0
-476 -496 0
-476 -497 0
-476 -498 0
-476 -499 0
-476 -500 0
-476 -501 0
-476 -502 0
-476 -503 0
-476 -504 0
-476 -505 0
-476 -506 0
-476 -507 0
-476 -508 0
-476 -509 0
-476 -510 0
-476 -511 0
-476 -512 0
-476 -513 0
-476 -514 0
-476 -515 0
-476 -516 0
-476 -517 0
-476 -518 0
-476 -519 0
-476 -520 0
-476 -521 0
-476 -522 0
-476 -523 0
-476 -524 0
-476 -525 0
-476 -526 0
-476 -527 0
-476 -528 0
-476 -529 0
-476 -530 0
-476 -531 0
-476 -532 0
-476 -533 0
-476 -534 0
-476 -535 0
-476 -536 0
-476 -537 0
-476 -538 0
-476 -539 0
-476 -540 0
-476 -541 0
-477 -478 0
-477 -479 0
-477 -480 0
-477 -481 0
-477 -482 0
-477 -483 0
-477 -484 0
-477 -485 0
-477 -486 0
-477 -487 0
-477 -488 0
-477 -489 0
-477 -490 0
-477 -491 0
-477 -492 0
-477 -493 0
-477 -494 0
-477 -495 0
-477 -496 0
-477 -497 0
-477 -498 0
-477 -499 0
-477 -500 0
-477 -501 0
-477 -502 0
-477 -503 0
-477 -504 0
-477 -505 0
-477 -506 0
-477 -507 0
-477 -508 0
-477 -509 0
-477 -510 0
-477 -511 0
-477 -512 0
-477 -513 0
-477 -514 0
-477 -515 0
-477 -516 0
-477 -517 0
-477 -518 0
-477 -519 0
-477 -520 0
-477 -521 0
-477 -522 0
-477 -523 0
-477 -524 0
-477 -525 0
-477 -526 0
-477 -527 0
-477 -528 0
-477 -529 0
-477 -530 0
-477 -531 0
-477 -532 0
-477 -533 0
-477 -534 0
-477 -535 0
-477 -536 0
-477 -537 0
-477 -538 0
-477 -539 0
-477 -540 0
-477 -541 0
-478 -479 0
-478 -480 0
-478 -481 0
-478 -482 0
-478 -483 0
-478 -484 0
-478 -485 0
-478 -486 0
-478 -487 0
-478 -488 0
-478 -489 0
-478 -490 0
-478 -491 0
-478 -492 0
-478 -493 0
-478 -494 0
-478 -495 0
-478 -496 0
-478 -497 0
-478 -498 0
-478 -499 0
-478 -500 0
-478 -501 0
-478 -502 0
-478 -503 0
-478 -504 0
-478 -505 0
-478 -506 0
-478 -507 0
-478 -508 0
-478 -509 0
-478 -510 0
-478 -511 0
-478 -512 0
-478 -513 0
-478 -514 0
-478 -515 0
-478 -516 0
-478 -517 0
-478 -518 0
-478 -519 0
-478 -520 0
-478 -521 0
-478 -522 0
-478 -523 0
-478 -524 0
-478 -525 0
-478 -526 0
-478 -527 0
-478 -528 0
-478 -529 0
-478 -530 0
-478 -531 0
-478 -532 0
-478 -533 0
-478 -534 0
-478 -535 0
-478 -536 0
-478 -537 0
-478 -538 0
-478 -539 0
-478 -540 0
-478 -541 0
-479 -480 0
-479 -481 0
-479 -482 0
-479 -483 0
-479 -484 0
-479 -485 0
-479 -486 0
-479 -487 0
-479 -488 0
-479 -489 0
-479 -490 0
-479 -491 0
-479 -492 0
-479 -493 0
-479 -494 0
-479 -495 0
-479 -496 0
-479 -497 0
-479 -498 0
-479 -499 0
-479 -500 0
-479 -501 0
-479 -502 0
-479 -503 0
-479 -504 0
-479 -505 0
-479 -506 0
-479 -507 0
-479 -508 0
-479 -509 0
-479 -510 0
-479 -511 0
-479 -512 0
-479 -513 0
-479 -514 0
-479 -515 0
-479 -516 0
-479 -517 0
-479 -518 0
-479 -519 0
-479 -520 0
-479 -521 0
-479 -522 0
-479 -523 0
-479 -524 0
-479 -525 0
-479 -526 0
-479 -527 0
-479 -528 0
-479 -529 0
-479 -530 0
-479 -531 0
-479 -532 0
-479 -533 0
-479 -534 0
-479 -535 0
-479 -536 0
-479 -537 0
-479 -538 0
-479 -539 0
-479 -540 0
-479 -541 0
-480 -481 0
-480 -482 0
-480 -483 0
-480 -484 0
-480 -485 0
-480 -486 0
-480 -487 0
-480 -488 0
-480 -489 0
-480 -490 0
-480 -491 0
-480 -492 0
-480 -493 0
-480 -494 0
-480 -495 0
-480 -496 0
-480 -497 0
-480 -498 0
-480 -499 0
-480 -500 0
-480 -501 0
-480 -502 0
-480 -503 0
-480 -504 0
-480 -505 0
-480 -506 0
-480 -507 0
-480 -508 0
-480 -509 0
-480 -510 0
-480 -511 0
-480 -512 0
-480 -513 0
-480 -514 0
-480 -515 0
-480 -516 0
-480 -517 0
-480 -518 0
-480 -519 0
-480 -520 0
-480 -521 0
-480 -522 0
-480 -523 0
-480 -524 0
-480 -525 0
-480 -526 0
-480 -527 0
-480 -528 0
-480 -529 0
-480 -530 0
-480 -531 0
-480 -532 0
-480 -533 0
-480 -534 0
-480 -535 0
-480 -536 0
-480 -537 0
-480 -538 0
-480 -539 0
-480 -540 0
-480 -541 0
-481 -482 0
-481 -483 0
-481 -484 0
-481 -485 0
-481 -486 0
-481 -487 0
-481 -488 0
-481 -489 0
-481 -490 0
-481 -491 0
-481 -492 0
-481 -493 0
-481 -494 0
-481 -495 0
-481 -496 0
-481 -497 0
-481 -498 0
-481 -499 0
-481 -500 0
-481 -501 0
-481 -502 0
-481 -503 0
-481 -504 0
-481 -505 0
-481 -506 0
-481 -507 0
-481 -508 0
-481 -509 0
-481 -510 0
-481 -511 0
-481 -512 0
-481 -513 0
-481 -514 0
-481 -515 0
-481 -516 0
-481 -517 0
-481 -518 0
-481 -519 0
-481 -520 0
-481 -521 0
-481 -522 0
-481 -523 0
-481 -524 0
-481 -525 0
-481 -526 0
-481 -527 0
-481 -528 0
-481 -529 0
-481 -530 0
-481 -531 0
-481 -532 0
-481 -533 0
-481 -534 0
-481 -535 0
-481 -536 0
-481 -537 0
-481 -538 0
-481 -539 0
-481 -540 0
-481 -541 0
-482 -483 0
-482 -484 0
-482 -485 0
-482 -486 0
-482 -487 0
-482 -488 0
-482 -489 0
-482 -490 0
-482 -491 0
-482 -492 0
-482 -493 0
-482 -494 0
-482 -495 0
-482 -496 0
-482 -497 0
-482 -498 0
-482 -499 0
-482 -500 0
-482 -501 0
-482 -502 0
-482 -503 0
-482 -504 0
-482 -505 0
-482 -506 0
-482 -507 0
-482 -508 0
-482 -509 0
-482 -510 0
-482 -511 0
-482 -512 0
-482 -513 0
-482 -514 0
-482 -515 0
-482 -516 0
-482 -517 0
-482 -518 0
-482 -519 0
-482 -520 0
-482 -521 0
-482 -522 0
-482 -523 0
-482 -524 0
-482 -525 0
-482 -526 0
-482 -527 0
-482 -528 0
-482 -529 0
-482 -530 0
-482 -531 0
-482 -532 0
-482 -533 0
-482 -534 0
-482 -535 0
-482 -536 0
-482 -537 0
-482 -538 0
-482 -539 0
-482 -540 0
-482 -541 0
-483 -484 0
-483 -485 0
-483 -486 0
-483 -487 0
-483 -488 0
-483 -489 0
-483 -490 0
-483 -491 0
-483 -492 0
-483 -493 0
-483 -494 0
-483 -495 0
-483 -496 0
-483 -497 0
-483 -498 0
-483 -499 0
-483 -500 0
-483 -501 0
-483 -502 0
-483 -503 0
-483 -504 0
-483 -505 0
-483 -506 0
-483 -507 0
-483 -508 0
-483 -509 0
-483 -510 0
-483 -511 0
-483 -512 0
-483 -513 0
-483 -514 0
-483 -515 0
-483 -516 0
-483 -517 0
-483 -518 0
-483 -519 0
-483 -520 0
-483 -521 0
-483 -522 0
-483 -523 0
-483 -524 0
-483 -525 0
-483 -526 0
-483 -527 0
-483 -528 0
-483 -529 0
-483 -530 0
-483 -531 0
-483 -532 0
-483 -533 0
-483 -534 0
-483 -535 0
-483 -536 0
-483 -537 0
-483 -538 0
-483 -539 0
-483 -540 0
-483 -541 0
-484 -485 0
-484 -486 0
-484 -487 0
-484 -488 0
-484 -489 0
-484 -490 0
-484 -491 0
-484 -492 0
-484 -493 0
-484 -494 0
-484 -495 0
-484 -496 0
-484 -497 0
-484 -498 0
-484 -499 0
-484 -500 0
-484 -501 0
-484 -502 0
-484 -503 0
-484 -504 0
-484 -505 0
-484 -506 0
-484 -507 0
-484 -508 0
-484 -509 0
-484 -510 0
-484 -511 0
-484 -512 0
-484 -513 0
-484 -514 0
-484 -515 0
-484 -516 0
-484 -517 0
-484 -518 0
-484 -519 0
-484 -520 0
-484 -521 0
-484 -522 0
-484 -523 0
-484 -524 0
-484 -525 0
-484 -526 0
-484 -527 0
-484 -528 0
-484 -529 0
-484 -530 0
-484 -531 0
-484 -532 0
-484 -533 0
-484 -534 0
-484 -535 0
-484 -536 0
-484 -537 0
-484 -538 0
-484 -539 0
-484 -540 0
-484 -541 0
-485 -486 0
-485 -487 0
-485 -488 0
-485 -489 0
-485 -490 0
-485 -491 0
-485 -492 0
-485 -493 0
-485 -494 0
-485 -495 0
-485 -496 0
-485 -497 0
-485 -498 0
-485 -499 0
-485 -500 0
-485 -501 0
-485 -502 0
-485 -503 0
-485 -504 0
-485 -505 0
-485 -506 0
-485 -507 0
-485 -508 0
-485 -509 0
-485 -510 0
-485 -511 0
-485 -512 0
-485 -513 0
-485 -514 0
-485 -515 0
-485 -516 0
-485 -517 0
-485 -518 0
-485 -519 0
-485 -520 0
-485 -521 0
-485 -522 0
-485 -523 0
-485 -524 0
-485 -525 0
-485 -526 0
-485 -527 0
-485 -528 0
-485 -529 0
-485 -530 0
-485 -531 0
-485 -532 0
-485 -533 0
-485 -534 0
-485 -535 0
-485 -536 0
-485 -537 0
-485 -538 0
-485 -539 0
-485 -540 0
-485 -541 0
-486 -487 0
-486 -488 0
-486 -489 0
-486 -490 0
-486 -491 0
-486 -492 0
-486 -493 0
-486 -494 0
-486 -495 0
-486 -496 0
-486 -497 0
-486 -498 0
-486 -499 0
-486 -500 0
-486 -501 0
-486 -502 0
-486 -503 0
-486 -504 0
-486 -505 0
-486 -506 0
-486 -507 0
-486 -508 0
-486 -509 0
-486 -510 0
-486 -511 0
-486 -512 0
-486 -513 0
-486 -514 0
-486 -515 0
-486 -516 0
-486 -517 0
-486 -518 0
-486 -519 0
-486 -520 0
-486 -521 0
-486 -522 0
-486 -523 0
-486 -524 0
-486 -525 0
-486 -526 0
-486 -527 0
-486 -528 0
-486 -529 0
-486 -530 0
-486 -531 0
-486 -532 0
-486 -533 0
-486 -534 0
-486 -535 0
-486 -536 0
-486 -537 0
-486 -538 0
-486 -539 0
-486 -540 0
-486 -541 0
-487 -488 0
-487 -489 0
-487 -490 0
-487 -491 0
-487 -492 0
-487 -493 0
-487 -494 0
-487 -495 0
-487 -496 0
-487 -497 0
-487 -498 0
-487 -499 0
-487 -500 0
-487 -501 0
-487 -502 0
-487 -503 0
-487 -504 0
-487 -505 0
-487 -506 0
-487 -507 0
-487 -508 0
-487 -509 0
-487 -510 0
-487 -511 0
-487 -512 0
-487 -513 0
-487 -514 0
-487 -515 0
-487 -516 0
-487 -517 0
-487 -518 0
-487 -519 0
-487 -520 0
-487 -521 0
-487 -522 0
-487 -523 0
-487 -524 0
-487 -525 0
-487 -526 0
-487 -527 0
-487 -528 0
-487 -529 0
-487 -530 0
-487 -531 0
-487 -532 0
-487 -533 0
-487 -534 0
-487 -535 0
-487 -536 0
-487 -537 0
-487 -538 0
-487 -539 0
-487 -540 0
-487 -541 0
-488 -489 0
-488 -490 0
-488 -491 0
-488 -492 0
-488 -493 0
-488 -494 0
-488 -495 0
-488 -496 0
-488 -497 0
-488 -498 0
-488 -499 0
-488 -500 0
-488 -501 0
-488 -502 0
-488 -503 0
-488 -504 0
-488 -505 0
-488 -506 0
-488 -507 0
-488 -508 0
-488 -509 0
-488 -510 0
-488 -511 0
-488 -512 0
-488 -513 0
-488 -514 0
-488 -515 0
-488 -516 0
-488 -517 0
-488 -518 0
-488 -519 0
-488 -520 0
-488 -521 0
-488 -522 0
-488 -523 0
-488 -524 0
-488 -525 0
-488 -526 0
-488 -527 0
-488 -528 0
-488 -529 0
-488 -530 0
-488 -531 0
-488 -532 0
-488 -533 0
-488 -534 0
-488 -535 0
-488 -536 0
-488 -537 0
-488 -538 0
-488 -539 0
-488 -540 0
-488 -541 0
-489 -490 0
-489 -491 0
-489 -492 0
-489 -493 0
-489 -494 0
-489 -495 0
-489 -496 0
-489 -497 0
-489 -498 0
-489 -499 0
-489 -500 0
-489 -501 0
-489 -502 0
-489 -503 0
-489 -504 0
-489 -505 0
-489 -506 0
-489 -507 0
-489 -508 0
-489 -509 0
-489 -510 0
-489 -511 0
-489 -512 0
-489 -513 0
-489 -514 0
-489 -515 0
-489 -516 0
-489 -517 0
-489 -518 0
-489 -519 0
-489 -520 0
-489 -521 0
-489 -522 0
-489 -523 0
-489 -524 0
-489 -525 0
-489 -526 0
-489 -527 0
-489 -528 0
-489 -529 0
-489 -530 0
-489 -531 0
-489 -532 0
-489 -533 0
-489 -534 0
-489 -535 0
-489 -536 0
-489 -537 0
-489 -538 0
-489 -539 0
-489 -540 0
-489 -541 0
-490 -491 0
-490 -492 0
-490 -493 0
-490 -494 0
-490 -495 0
-490 -496 0
-490 -497 0
-490 -498 0
-490 -499 0
-490 -500 0
-490 -501 0
-490 -502 0
-490 -503 0
-490 -504 0
-490 -505 0
-490 -506 0
-490 -507 0
-490 -508 0
-490 -509 0
-490 -510 0
-490 -511 0
-490 -512 0
-490 -513 0
-490 -514 0
-490 -515 0
-490 -516 0
-490 -517 0
-490 -518 0
-490 -519 0
-490 -520 0
-490 -521 0
-490 -522 0
-490 -523 0
-490 -524 0
-490 -525 0
-490 -526 0
-490 -527 0
-490 -528 0
-490 -529 0
-490 -530 0
-490 -531 0
-490 -532 0
-490 -533 0
-490 -534 0
-490 -535 0
-490 -536 0
-490 -537 0
-490 -538 0
-490 -539 0
-490 -540 0
-490 -541 0
-491 -492 0
-491 -493 0
-491 -494 0
-491 -495 0
-491 -496 0
-491 -497 0
-491 -498 0
-491 -499 0
-491 -500 0
-491 -501 0
-491 -502 0
-491 -503 0
-491 -504 0
-491 -505 0
-491 -506 0
-491 -507 0
-491 -508 0
-491 -509 0
-491 -510 0
-491 -511 0
-491 -512 0
-491 -513 0
-491 -514 0
-491 -515 0
-491 -516 0
-491 -517 0
-491 -518 0
-491 -519 0
-491 -520 0
-491 -521 0
-491 -522 0
-491 -523 0
-491 -524 0
-491 -525 0
-491 -526 0
-491 -527 0
-491 -528 0
-491 -529 0
-491 -530 0
-491 -531 0
-491 -532 0
-491 -533 0
-491 -534 0
-491 -535 0
-491 -536 0
-491 -537 0
-491 -538 0
-491 -539 0
-491 -540 0
-491 -541 0
-492 -493 0
-492 -494 0
-492 -495 0
-492 -496 0
-492 -497 0
-492 -498 0
-492 -499 0
-492 -500 0
-492 -501 0
-492 -502 0
-492 -503 0
-492 -504 0
-492 -505 0
-492 -506 0
-492 -507 0
-492 -508 0
-492 -509 0
-492 -510 0
-492 -511 0
-492 -512 0
-492 -513 0
-492 -514 0
-492 -515 0
-492 -516 0
-492 -517 0
-492 -518 0
-492 -519 0
-492 -520 0
-492 -521 0
-492 -522 0
-492 -523 0
-492 -524 0
-492 -525 0
-492 -526 0
-492 -527 0
-492 -528 0
-492 -529 0
-492 -530 0
-492 -531 0
-492 -532 0
-492 -533 0
-492 -534 0
-492 -535 0
-492 -536 0
-492 -537 0
-492 -538 0
-492 -539 0
-492 -540 0
-492 -541 0
-493 -494 0
-493 -495 0
-493 -496 0
-493 -497 0
-493 -498 0
-493 -499 0
-493 -500 0
-493 -501 0
-493 -502 0
-493 -503 0
-493 -504 0
-493 -505 0
-493 -506 0
-493 -507 0
-493 -508 0
-493 -509 0
-493 -510 0
-493 -511 0
-493 -512 0
-493 -513 0
-493 -514 0
-493 -515 0
-493 -516 0
-493 -517 0
-493 -518 0
-493 -519 0
-493 -520 0
-493 -521 0
-493 -522 0
-493 -523 0
-493 -524 0
-493 -525 0
-493 -526 0
-493 -527 0
-493 -528 0
-493 -529 0
-493 -530 0
-493 -531 0
-493 -532 0
-493 -533 0
-493 -534 0
-493 -535 0
-493 -536 0
-493 -537 0
-493 -538 0
-493 -539 0
-493 -540 0
-493 -541 0
-494 -495 0
-494 -496 0
-494 -497 0
-494 -498 0
-494 -499 0
-494 -500 0
-494 -501 0
-494 -502 0
-494 -503 0
-494 -504 0
-494 -505 0
-494 -506 0
-494 -507 0
-494 -508 0
-494 -509 0
-494 -510 0
-494 -511 0
-494 -512 0
-494 -513 0
-494 -514 0
-494 -515 0
-494 -516 0
-494 -517 0
-494 -518 0
-494 -519 0
-494 -520 0
-494 -521 0
-494 -522 0
-494 -523 0
-494 -524 0
-494 -525 0
-494 -526 0
-494 -527 0
-494 -528 0
-494 -529 0
-494 -530 0
-494 -531 0
-494 -532 0
-494 -533 0
-494 -534 0
-494 -535 0
-494 -536 0
-494 -537 0
-494 -538 0
-494 -539 0
-494 -540 0
-494 -541 0
-495 -496 0
-495 -497 0
-495 -498 0
-495 -499 0
-495 -500 0
-495 -501 0
-495 -502 0
-495 -503 0
-495 -504 0
-495 -505 0
-495 -506 0
-495 -507 0
-495 -508 0
-495 -509 0
-495 -510 0
-495 -511 0
-495 -512 0
-495 -513 0
-495 -514 0
-495 -515 0
-495 -516 0
-495 -517 0
-495 -518 0
-495 -519 0
-495 -520 0
-495 -521 0
-495 -522 0
-495 -523 0
-495 -524 0
-495 -525 0
-495 -526 0
-495 -527 0
-495 -528 0
-495 -529 0
-495 -530 0
-495 -531 0
-495 -532 0
-495 -533 0
-495 -534 0
-495 -535 0
-495 -536 0
-495 -537 0
-495 -538 0
-495 -539 0
-495 -540 0
-495 -541 0
-496 -497 0
-496 -498 0
-496 -499 0
-496 -500 0
-496 -501 0
-496 -502 0
-496 -503 0
-496 -504 0
-496 -505 0
-496 -506 0
-496 -507 0
-496 -508 0
-496 -509 0
-496 -510 0
-496 -511 0
-496 -512 0
-496 -513 0
-496 -514 0
-496 -515 0
-496 -516 0
-496 -517 0
-496 -518 0
-496 -519 0
-496 -520 0
-496 -521 0
-496 -522 0
-496 -523 0
-496 -524 0
-496 -525 0
-496 -526 0
-496 -527 0
-496 -528 0
-496 -529 0
-496 -530 0
-496 -531 0
-496 -532 0
-496 -533 0
-496 -534 0
-496 -535 0
-496 -536 0
-496 -537 0
-496 -538 0
-496 -539 0
-496 -540 0
-496 -541 0
-497 -498 0
-497 -499 0
-497 -500 0
-497 -501 0
-497 -502 0
-497 -503 0
-497 -504 0
-497 -505 0
-497 -506 0
-497 -507 0
-497 -508 0
-497 -509 0
-497 -510 0
-497 -511 0
-497 -512 0
-497 -513 0
-497 -514 0
-497 -515 0
-497 -516 0
-497 -517 0
-497 -518 0
-497 -519 0
-497 -520 0
-497 -521 0
-497 -522 0
-497 -523 0
-497 -524 0
-497 -525 0
-497 -526 0
-497 -527 0
-497 -528 0
-497 -529 0
-497 -530 0
-497 -531 0
-497 -532 0
-497 -533 0
-497 -534 0
-497 -535 0
-497 -536 0
-497 -537 0
-497 -538 0
-497 -539 0
-497 -540 0
-497 -541 0
-498 -499 0
-498 -500 0
-498 -501 0
-498 -502 0
-498 -503 0
-498 -504 0
-498 -505 0
-498 -506 0
-498 -507 0
-498 -508 0
-498 -509 0
-498 -510 0
-498 -511 0
-498 -512 0
-498 -513 0
-498 -514 0
-498 -515 0
-498 -516 0
-498 -517 0
-498 -518 0
-498 -519 0
-498 -520 0
-498 -521 0
-498 -522 0
-498 -523 0
-498 -524 0
-498 -525 0
-498 -526 0
-498 -527 0
-498 -528 0
-498 -529 0
-498 -530 0
-498 -531 0
-498 -532 0
-498 -533 0
-498 -534 0
-498 -535 0
-498 -536 0
-498 -537 0
-498 -538 0
-498 -539 0
-498 -540 0
-498 -541 0
-499 -500 0
-499 -501 0
-499 -502 0
-499 -503 0
-499 -504 0
-499 -505 0
-499 -506 0
-499 -507 0
-499 -508 0
-499 -509 0
-499 -510 0
-499 -511 0
-499 -512 0
-499 -513 0
-499 -514 0
-499 -515 0
-499 -516 0
-499 -517 0
-499 -518 0
-499 -519 0
-499 -520 0
-499 -521 0
-499 -522 0
-499 -523 0
-499 -524 0
-499 -525 0
-499 -526 0
-499 -527 0
-499 -528 0
-499 -529 0
-499 -530 0
-499 -531 0
-499 -532 0
-499 -533 0
-499 -534 0
-499 -535 0
-499 -536 0
-499 -537 0
-499 -538 0
-499 -539 0
-499 -540 0
-499 -541 0
-500 -501 0
-500 -502 0
-500 -503 0
-500 -504 0
-500 -505 0
-500 -506 0
-500 -507 0
-500 -508 0
-500 -509 0
-500 -510 0
-500 -511 0
-500 -512 0
-500 -513 0
-500 -514 0
-500 -515 0
-500 -516 0
-500 -517 0
-500 -518 0
-500 -519 0
-500 -520 0
-500 -521 0
-500 -522 0
-500 -523 0
-500 -524 0
-500 -525 0
-500 -526 0
-500 -527 0
-500 -528 0
-500 -529 0
-500 -530 0
-500 -531 0
-500 -532 0
-500 -533 0
-500 -534 0
-500 -535 0
-500 -536 0
-500 -537 0
-500 -538 0
-500 -539 0
-500 -540 0
-500 -541 0
-501 -502 0
-501 -503 0
-501 -504 0
-501 -505 0
-501 -506 0
-501 -507 0
-501 -508 0
-501 -509 0
-501 -510 0
-501 -511 0
-501 -512 0
-501 -513 0
-501 -514 0
-501 -515 0
-501 -516 0
-501 -517 0
-501 -518 0
-501 -519 0
-501 -520 0
-501 -521 0
-501 -522 0
-501 -523 0
-501 -524 0
-501 -525 0
-501 -526 0
-501 -527 0
-501 -528 0
-501 -529 0
-501 -530 0
-501 -531 0
-501 -532 0
-501 -533 0
-501 -534 0
-501 -535 0
-501 -536 0
-501 -537 0
-501 -538 0
-501 -539 0
-501 -540 0
-501 -541 0
-502 -503 0
-502 -504 0
-502 -505 0
-502 -506 0
-502 -507 0
-502 -508 0
-502 -509 0
-502 -510 0
-502 -511 0
-502 -512 0
-502 -513 0
-502 -514 0
-502 -515 0
-502 -516 0
-502 -517 0
-502 -518 0
-502 -519 0
-502 -520 0
-502 -521 0
-502 -522 0
-502 -523 0
-502 -524 0
-502 -525 0
-502 -526 0
-502 -527 0
-502 -528 0
-502 -529 0
-502 -530 0
-502 -531 0
-502 -532 0
-502 -533 0
-502 -534 0
-502 -535 0
-502 -536 0
-502 -537 0
-502 -538 0
-502 -539 0
-502 -540 0
-502 -541 0
-503 -504 0
-503 -505 0
-503 -506 0
-503 -507 0
-503 -508 0
-503 -509 0
-503 -510 0
-503 -511 0
-503 -512 0
-503 -513 0
-503 -514 0
-503 -515 0
-503 -516 0
-503 -517 0
-503 -518 0
-503 -519 0
-503 -520 0
-503 -521 0
-503 -522 0
-503 -523 0
-503 -524 0
-503 -525 0
-503 -526 0
-503 -527 0
-503 -528 0
-503 -529 0
-503 -530 0
-503 -531 0
-503 -532 0
-503 -533 0
-503 -534 0
-503 -535 0
-503 -536 0
-503 -537 0
-503 -538 0
-503 -539 0
-503 -540 0
-503 -541 0
-504 -505 0
-504 -506 0
-504 -507 0
-504 -508 0
-504 -509 0
-504 -510 0
-504 -511 0
-504 -512 0
-504 -513 0
-504 -514 0
-504 -515 0
-504 -516 0
-504 -517 0
-504 -518 0
-504 -519 0
-504 -520 0
-504 -521 0
-504 -522 0
-504 -523 0
-504 -524 0
-504 -525 0
-504 -526 0
-504 -527 0
-504 -528 0
-504 -529 0
-504 -530 0
-504 -531 0
-504 -532 0
-504 -533 0
-504 -534 0
-504 -535 0
-504 -536 0
-504 -537 0
-504 -538 0
-504 -539 0
-504 -540 0
-504 -541 0
-505 -506 0
-505 -507 0
-505 -508 0
-505 -509 0
-505 -510 0
-505 -511 0
-505 -512 0
-505 -513 0
-505 -514 0
-505 -515 0
-505 -516 0
-505 -517 0
-505 -518 0
-505 -519 0
-505 -520 0
-505 -521 0
-505 -522 0
-505 -523 0
-505 -524 0
-505 -525 0
-505 -526 0
-505 -527 0
-505 -528 0
-505 -529 0
-505 -530 0
-505 -531 0
-505 -532 0
-505 -533 0
-505 -534 0
-505 -535 0
-505 -536 0
-505 -537 0
-505 -538 0
-505 -539 0
-505 -540 0
-505 -541 0
-506 -507 0
-506 -508 0
-506 -509 0
-506 -510 0
-506 -511 0
-506 -512 0
-506 -513 0
-506 -514 0
-506 -515 0
-506 -516 0
-506 -517 0
-506 -518 0
-506 -519 0
-506 -520 0
-506 -521 0
-506 -522 0
-506 -523 0
-506 -524 0
-506 -525 0
-506 -526 0
-506 -527 0
-506 -528 0
-506 -529 0
-506 -530 0
-506 -531 0
-506 -532 0
-506 -533 0
-506 -534 0
-506 -535 0
-506 -536 0
-506 -537 0
-506 -538 0
-506 -539 0
-506 -540 0
-506 -541 0
-507 -508 0
-507 -509 0
-507 -510 0
-507 -511 0
-507 -512 0
-507 -513 0
-507 -514 0
-507 -515 0
-507 -516 0
-507 -517 0
-507 -518 0
-507 -519 0
-507 -520 0
-507 -521 0
-507 -522 0
-507 -523 0
-507 -524 0
-507 -525 0
-507 -526 0
-507 -527 0
-507 -528 0
-507 -529 0
-507 -530 0
-507 -531 0
-507 -532 0
-507 -533 0
-507 -534 0
-507 -535 0
-507 -536 0
-507 -537 0
-507 -538 0
-507 -539 0
-507 -540 0
-507 -541 0
-508 -509 0
-508 -510 0
-508 -511 0
-508 -512 0
-508 -513 0
-508 -514 0
-508 -515 0
-508 -516 0
-508 -517 0
-508 -518 0
-508 -519 0
-508 -520 0
-508 -521 0
-508 -522 0
-508 -523 0
-508 -524 0
-508 -525 0
-508 -526 0
-508 -527 0
-508 -528 0
-508 -529 0
-508 -530 0
-508 -531 0
-508 -532 0
-508 -533 0
-508 -534 0
-508 -535 0
-508 -536 0
-508 -537 0
-508 -538 0
-508 -539 0
-508 -540 0
-508 -541 0
-509 -510 0
-509 -511 0
-509 -512 0
-509 -513 0
-509 -514 0
-509 -515 0
-509 -516 0
-509 -517 0
-509 -518 0
-509 -519 0
-509 -520 0
-509 -521 0
-509 -522 0
-509 -523 0
-509 -524 0
-509 -525 0
-509 -526 0
-509 -527 0
-509 -528 0
-509 -529 0
-509 -530 0
-509 -531 0
-509 -532 0
-509 -533 0
-509 -534 0
-509 -535 0
-509 -536 0
-509 -537 0
-509 -538 0
-509 -539 0
-509 -540 0
-509 -541 0
-510 -511 0
-510 -512 0
-510 -513 0
-510 -514 0
-510 -515 0
-510 -516 0
-510 -517 0
-510 -518 0
-510 -519 0
-510 -520 0
-510 -521 0
-510 -522 0
-510 -523 0
-510 -524 0
-510 -525 0
-510 -526 0
-510 -527 0
-510 -528 0
-510 -529 0
-510 -530 0
-510 -531 0
-510 -532 0
-510 -533 0
-510 -534 0
-510 -535 0
-510 -536 0
-510 -537 0
-510 -538 0
-510 -539 0
-510 -540 0
-510 -541 0
-511 -512 0
-511 -513 0
-511 -514 0
-511 -515 0
-511 -516 0
-511 -517 0
-511 -518 0
-511 -519 0
-511 -520 0
-511 -521 0
-511 -522 0
-511 -523 0
-511 -524 0
-511 -525 0
-511 -526 0
-511 -527 0
-511 -528 0
-511 -529 0
-511 -530 0
-511 -531 0
-511 -532 0
-511 -533 0
-511 -534 0
-511 -535 0
-511 -536 0
-511 -537 0
-511 -538 0
-511 -539 0
-511 -540 0
-511 -541 0
-512 -513 0
-512 -514 0
-512 -515 0
-512 -516 0
-512 -517 0
-512 -518 0
-512 -519 0
-512 -520 0
-512 -521 0
-512 -522 0
-512 -523 0
-512 -524 0
-512 -525 0
-512 -526 0
-512 -527 0
-512 -528 0
-512 -529 0
-512 -530 0
-512 -531 0
-512 -532 0
-512 -533 0
-512 -534 0
-512 -535 0
-512 -536 0
-512 -537 0
-512 -538 0
-512 -539 0
-512 -540 0
-512 -541 0
-513 -514 0
-513 -515 0
-513 -516 0
-513 -517 0
-513 -518 0
-513 -519 0
-513 -520 0
-513 -521 0
-513 -522 0
-513 -523 0
-513 -524 0
-513 -525 0
-513 -526 0
-513 -527 0
-513 -528 0
-513 -529 0
-513 -530 0
-513 -531 0
-513 -532 0
-513 -533 0
-513 -534 0
-513 -535 0
-513 -536 0
-513 -537 0
-513 -538 0
-513 -539 0
-513 -540 0
-513 -541 0
-514 -515 0
-514 -516 0
-514 -517 0
-514 -518 0
-514 -519 0
-514 -520 0
-514 -521 0
-514 -522 0
-514 -523 0
-514 -524 0
-514 -525 0
-514 -526 0
-514 -527 0
-514 -528 0
-514 -529 0
-514 -530 0
-514 -531 0
-514 -532 0
-514 -533 0
-514 -534 0
-514 -535 0
-514 -536 0
-514 -537 0
-514 -538 0
-514 -539 0
-514 -540 0
-514 -541 0
-515 -516 0
-515 -517 0
-515 -518 0
-515 -519 0
-515 -520 0
-515 -521 0
-515 -522 0
-515 -523 0
-515 -524 0
-515 -525 0
-515 -526 0
-515 -527 0
-515 -528 0
-515 -529 0
-515 -530 0
-515 -531 0
-515 -532 0
-515 -533 0
-515 -534 0
-515 -535 0
-515 -536 0
-515 -537 0
-515 -538 0
-515 -539 0
-515 -540 0
-515 -541 0
-516 -517 0
-516 -518 0
-516 -519 0
-516 -520 0
-516 -521 0
-516 -522 0
-516 -523 0
-516 -524 0
-516 -525 0
-516 -526 0
-516 -527 0
-516 -528 0
-516 -529 0
-516 -530 0
-516 -531 0
-516 -532 0
-516 -533 0
-516 -534 0
-516 -535 0
-516 -536 0
-516 -537 0
-516 -538 0
-516 -539 0
-516 -540 0
-516 -541 0
-517 -518 0
-517 -519 0
-517 -520 0
-517 -521 0
-517 -522 0
-517 -523 0
-517 -524 0
-517 -525 0
-517 -526 0
-517 -527 0
-517 -528 0
-517 -529 0
-517 -530 0
-517 -531 0
-517 -532 0
-517 -533 0
-517 -534 0
-517 -535 0
-517 -536 0
-517 -537 0
-517 -538 0
-517 -539 0
-517 -540 0
-517 -541 0
-518 -519 0
-518 -520 0
-518 -521 0
-518 -522 0
-518 -523 0
-518 -524 0
-518 -525 0
-518 -526 0
-518 -527 0
-518 -528 0
-518 -529 0
-518 -530 0
-518 -531 0
-518 -532 0
-518 -533 0
-518 -534 0
-518 -535 0
-518 -536 0
-518 -537 0
-518 -538 0
-518 -539 0
-518 -540 0
-518 -541 0
-519 -520 0
-519 -521 0
-519 -522 0
-519 -523 0
-519 -524 0
-519 -525 0
-519 -526 0
-519 -527 0
-519 -528 0
-519 -529 0
-519 -530 0
-519 -531 0
-519 -532 0
-519 -533 0
-519 -534 0
-519 -535 0
-519 -536 0
-519 -537 0
-519 -538 0
-519 -539 0
-519 -540 0
-519 -541 0
-520 -521 0
-520 -522 0
-520 -523 0
-520 -524 0
-520 -525 0
-520 -526 0
-520 -527 0
-520 -528 0
-520 -529 0
-520 -530 0
-520 -531 0
-520 -532 0
-520 -533 0
-520 -534 0
-520 -535 0
-520 -536 0
-520 -537 0
-520 -538 0
-520 -539 0
-520 -540 0
-520 -541 0
-521 -522 0
-521 -523 0
-521 -524 0
-521 -525 0
-521 -526 0
-521 -527 0
-521 -528 0
-521 -529 0
-521 -530 0
-521 -531 0
-521 -532 0
-521 -533 0
-521 -534 0
-521 -535 0
-521 -536 0
-521 -537 0
-521 -538 0
-521 -539 0
-521 -540 0
-521 -541 0
-522 -523 0
-522 -524 0
-522 -525 0
-522 -526 0
-522 -527 0
-522 -528 0
-522 -529 0
-522 -530 0
-522 -531 0
-522 -532 0
-522 -533 0
-522 -534 0
-522 -535 0
-522 -536 0
-522 -537 0
-522 -538 0
-522 -539 0
-522 -540 0
-522 -541 0
-523 -524 0
-523 -525 0
-523 -526 0
-523 -527 0
-523 -528 0
-523 -529 0
-523 -530 0
-523 -531 0
-523 -532 0
-523 -533 0
-523 -534 0
-523 -535 0
-523 -536 0
-523 -537 0
-523 -538 0
-523 -539 0
-523 -540 0
-523 -541 0
-524 -525 0
-524 -526 0
-524 -527 0
-524 -528 0
-524 -529 0
-524 -530 0
-524 -531 0
-524 -532 0
-524 -533 0
-524 -534 0
-524 -535 0
-524 -536 0
-524 -537 0
-524 -538 0
-524 -539 0
-524 -540 0
-524 -541 0
-525 -526 0
-525 -527 0
-525 -528 0
-525 -529 0
-525 -530 0
-525 -531 0
-525 -532 0
-525 -533 0
-525 -534 0
-525 -535 0
-525 -536 0
-525 -537 0
-525 -538 0
-525 -539 0
-525 -540 0
-525 -541 0
-526 -527 0
-526 -528 0
-526 -529 0
-526 -530 0
-526 -531 0
-526 -532 0
-526 -533 0
-526 -534 0
-526 -535 0
-526 -536 0
-526 -537 0
-526 -538 0
-526 -539 0
-526 -540 0
-526 -541 0
-527 -528 0
-527 -529 0
-527 -530 0
-527 -531 0
-527 -532 0
-527 -533 0
-527 -534 0
-527 -535 0
-527 -536 0
-527 -537 0
-527 -538 0
-527 -539 0
-527 -540 0
-527 -541 0
-528 -529 0
-528 -530 0
-528 -531 0
-528 -532 0
-528 -533 0
-528 -534 0
-528 -535 0
-528 -536 0
-528 -537 0
-528 -538 0
-528 -539 0
-528 -540 0
-528 -541 0
-529 -530 0
-529 -531 0
-529 -532 0
-529 -533 0
-529 -534 0
-529 -535 0
-529 -536 0
-529 -537 0
-529 -538 0
-529 -539 0
-529 -540 0
-529 -541 0
-530 -531 0
-530 -532 0
-530 -533 0
-530 -534 0
-530 -535 0
-530 -536 0
-530 -537 0
-530 -538 0
-530 -539 0
-530 -540 0
-530 -541 0
-531 -532 0
-531 -533 0
-531 -534 0
-531 -535 0
-531 -536 0
-531 -537 0
-531 -538 0
-531 -539 0
-531 -540 0
-531 -541 0
-532 -533 0
-532 -534 0
-532 -535 0
-532 -536 0
-532 -537 0
-532 -538 0
-532 -539 0
-532 -540 0
-532 -541 0
-533 -534 0
-533 -535 0
-533 -536 0
-533 -537 0
-533 -538 0
-533 -539 0
-533 -540 0
-533 -541 0
-534 -535 0
-534 -536 0
-534 -537 0
-534 -538 0
-534 -539 0
-534 -540 0
-534 -541 0
-535 -536 0
-535 -537 0
-535 -538 0
-535 -539 0
-535 -540 0
-535 -541 0
-536 -537 0
-536 -538 0
-536 -539 0
-536 -540 0
-536 -541 0
-537 -538 0
-537 -539 0
-537 -540 0
-537 -541 0
-538 -539 0
-538 -540 0
-538 -541 0
-539 -540 0
-539 -541 0
-540 -541 0
-1 -8 -23 -28 1142 0
-1 -9 -23 -29 1142 0
-1 -10 -23 -30 1142 0
-2 -8 -23 -28 1142 0
-2 -9 -23 -29 1142 0
-2 -10 -23 -30 1142 0
-2 -8 -24 -28 1142 0
-2 -9 -24 -29 1142 0
-2 -10 -24 -30 1142 0
-3 -8 -24 -28 1142 0
-3 -9 -24 -29 1142 0
-3 -10 -24 -30 1142 0
-3 -8 -25 -28 1142 0
-3 -9 -25 -29 1142 0
-3 -10 -25 -30 1142 0
-4 -8 -25 -28 1142 0
-4 -9 -25 -29 1142 0
-4 -10 -25 -30 1142 0
-4 -8 -26 -28 1142 0
-4 -9 -26 -29 1142 0
-4 -10 -26 -30 1142 0
-5 -8 -26 -28 1142 0
-5 -9 -26 -29 1142 0
-5 -10 -26 -30 1142 0
-5 -8 -27 -28 1142 0
-5 -9 -27 -29 1142 0
-5 -10 -27 -30 1142 0
-6 -8 -27 -28 1142 0
-6 -9 -27 -29 1142 0
-6 -10 -27 -30 1142 0
-1142 0
-42 -49 -64 -69 1143 0
-42 -50 -64 -70 1143 0
-42 -51 -64 -71 1143 0
-43 -49 -64 -69 1143 0
-43 -50 -64 -70 1143 0
-43 -51 -64 -71 1143 0
-43 -49 -65 -69 1143 0
-43 -50 -65 -70 1143 0
-43 -51 -65 -71 1143 0
-44 -49 -65 -69 1143 0
-44 -50 -65 -70 1143 0
-44 -51 -65 -71 1143 0
-44 -49 -66 -69 1143 0
-44 -50 -66 -70 1143 0
-44 -51 -66 -71 1143 0
-45 -49 -66 -69 1143 0
-45 -50 -66 -70 1143 0
-45 -51 -66 -71 1143 0
-45 -49 -67 -69 1143 0
-45 -50 -67 -70 1143 0
-45 -51 -67 -71 1143 0
-46 -49 -67 -69 1143 0
-46 -50 -67 -70 1143 0
-46 -51 -67 -71 1143 0
-46 -49 -68 -69 1143 0
-46 -50 -68 -70 1143 0
-46 -51 -68 -71 1143 0
-47 -49 -68 -69 1143 0
-47 -50 -68 -70 1143 0
-47 -51 -68 -71 1143 0
-1143 37 0
-83 -90 -105 -110 1144 0
-83 -91 -105 -111 1144 0
-83 -92 -105 -112 1144 0
-84 -90 -105 -110 1144 0
-84 -91 -105 -111 1144 0
-84 -92 -105 -112 1144 0
-84 -90 -106 -110 1144 0
-84 -91 -106 -111 1144 0
-84 -92 -106 -112 1144 0
-85 -90 -106 -110 1144 0
-85 -91 -106 -111 1144 0
-85 -92 -106 -112 1144 0
-85 -90 -107 -110 1144 0
-85 -91 -107 -111 1144 0
-85 -92 -107 -112 1144 0
-86 -90 -107 -110 1144 0
-86 -91 -107 -111 1144 0
-86 -92 -107 -112 1144 0
-86 -90 -108 -110 1144 0
-86 -91 -108 -111 1144 0
-86 -92 -108 -112 1144 0
-87 -90 -108 -110 1144 0
-87 -91 -108 -111 1144 0
-87 -92 -108 -112 1144 0
-87 -90 -109 -110 1144 0
-87 -91 -109 -111 1144 0
-87 -92 -109 -112 1144 0
-88 -90 -109 -110 1144 0
-88 -91 -109 -111 1144 0
-88 -92 -109 -112 1144 0
-1144 37 78 0
-124 -131 -146 -151 1145 0
-124 -132 -146 -152 1145 0
-124 -133 -146 -153 1145 0
-125 -131 -146 -151 1145 0
-125 -132 -146 -152 1145 0
-125 -133 -146 -153 1145 0
-125 -131 -147 -151 1145 0
-125 -132 -147 -152 1145 0
-125 -133 -147 -153 1145 0
-126 -131 -147 -151 1145 0
-126 -132 -147 -152 1145 0
-126 -133 -147 -153 1145 0
-126 -131 -148 -151 1145 0
-126 -132 -148 -152 1145 0
-126 -133 -148 -153 1145 0
-127 -131 -148 -151 1145 0
-127 -132 -148 -152 1145 0
-127 -133 -148 -153 1145 0
-127 -131 -149 -151 1145 0
-127 -132 -149 -152 1145 0
-127 -133 -149 -153 1145 0
-128 -131 -149 -151 1145 0
-128 -132 -149 -152 1145 0
-128 -133 -149 -153 1145 0
-128 -131 -150 -151 1145 0
-128 -132 -150 -152 1145 0
-128 -133 -150 -153 1145 0
-129 -131 -150 -151 1145 0
-129 -132 -150 -152 1145 0
-129 -133 -150 -153 1145 0
-1145 37 78 119 0
-165 -172 -187 -192 1146 0
-165 -173 -187 -193 1146 0
-165 -174 -187 -194 1146 0
-166 -172 -187 -192 1146 0
-166 -173 -187 -193 1146 0
-166 -174 -187 -194 1146 0
-166 -172 -188 -192 1146 0
-166 -173 -188 -193 1146 0
-166 -174 -188 -194 1146 0
-167 -172 -188 -192 1146 0
-167 -173 -188 -193 1146 0
-167 -174 -188 -194 1146 0
-167 -172 -189 -192 1146 0
-167 -173 -189 -193 1146 0
-167 -174 -189 -194 1146 0
-168 -172 -189 -192 1146 0
-168 -173 -189 -193 1146 0
-168 -174 -189 -194 1146 0
-168 -172 -190 -192 1146 0
-168 -173 -190 -193 1146 0
-168 -174 -190 -194 1146 0
-169 -172 -190 -192 1146 0
-169 -173 -190 -193 1146 0
-169 -174 -190 -194 1146 0
-169 -172 -191 -192 1146 0
-169 -173 -191 -193 1146 0
-169 -174 -191 -194 1146 0
-170 -172 -191 -192 1146 0
-170 -173 -191 -193 1146 0
-170 -174 -191 -194 1146 0
-1146 37 78 119 160 0
